#------------------------------------------------------------------------------
#$Date: 2018-10-27 01:27:29 +0300 (Sat, 27 Oct 2018) $
#$Revision: 211672 $
#$URL: file:///home/coder/svn-repositories/cod/cif/1/55/01/1550127.cif $
#------------------------------------------------------------------------------
#
# This file is available in the Crystallography Open Database (COD),
# http://www.crystallography.net/
#
# All data on this site have been placed in the public domain by the
# contributors.
#
data_1550127
loop_
_publ_author_name
'Yoshinari, Nobuto'
'Yamashita, Satoshi'
'Fukuda, Yosuke'
'Nakazawa, Yasuhiro'
'Konno, Takumi'
_publ_section_title
;
 Mobility of hydrated alkali metal ions in metallosupramolecular ionic
 crystals
;
_journal_name_full               'Chemical Science'
_journal_paper_doi               10.1039/C8SC04204G
_journal_year                    2019
_chemical_absolute_configuration rm
_chemical_formula_moiety         'C36 H60 N12 Na O31 Rh4 S12 Zn4, 48(O)'
_chemical_formula_sum            'C36 H60 N12 Na O79 Rh4 S12 Zn4'
_chemical_formula_weight         3005.79
_chemical_name_systematic
;
 ?
;
_space_group_crystal_system      cubic
_space_group_IT_number           198
_space_group_name_Hall           'P 2ac 2ab 3'
_space_group_name_H-M_alt        'P 21 3'
_symmetry_space_group_name_Hall  'P 2ac 2ab 3'
_symmetry_space_group_name_H-M   'P 21 3'
_atom_sites_solution_hydrogens   geom
_audit_creation_method           SHELXL-2014
_audit_update_record
;
2017-10-10 deposited with the CCDC.
2018-10-22 downloaded from the CCDC.
;
_cell_angle_alpha                90
_cell_angle_beta                 90
_cell_angle_gamma                90
_cell_formula_units_Z            4
_cell_length_a                   23.574(7)
_cell_length_b                   23.574(7)
_cell_length_c                   23.574(7)
_cell_measurement_reflns_used    33353
_cell_measurement_temperature    100(2)
_cell_measurement_theta_max      27.01
_cell_measurement_theta_min      0.85
_cell_volume                     13101(7)
_computing_cell_refinement       'RAPID-AUTO (Rigaku Corporation)'
_computing_data_collection       'RAPID-AUTO (Rigaku Corporation)'
_computing_data_reduction        'RAPID-AUTO (Rigaku Corporation)'
_computing_molecular_graphics
'Yadokari-XG 2009 (Wakita Nemoto et al., 2009)'
_computing_publication_material
'Yadokari-XG 2009 (Wakita, Nemoto et al., 2009)'
_computing_structure_refinement  'SHELXL-2014/7 (Sheldrick, 2014)'
_computing_structure_solution    'SHELXS-2014 (Sheldrick, 2014)'
_diffrn_ambient_temperature      100(2)
_diffrn_detector_area_resol_mean 14.69
_diffrn_measured_fraction_theta_full 1.000
_diffrn_measured_fraction_theta_max 1.000
_diffrn_measurement_device_type  'Rigaku Mercury2CCD detector'
_diffrn_measurement_method       /w
_diffrn_radiation_monochromator  Si(311)
_diffrn_radiation_source         'SPring-8 BL02B1 bending magnet'
_diffrn_radiation_type           synchrotron
_diffrn_radiation_wavelength     0.7009
_diffrn_reflns_av_R_equivalents  0.2080
_diffrn_reflns_av_unetI/netI     0.1167
_diffrn_reflns_Laue_measured_fraction_full 1.000
_diffrn_reflns_Laue_measured_fraction_max 1.000
_diffrn_reflns_limit_h_max       30
_diffrn_reflns_limit_h_min       -20
_diffrn_reflns_limit_k_max       18
_diffrn_reflns_limit_k_min       -29
_diffrn_reflns_limit_l_max       30
_diffrn_reflns_limit_l_min       -29
_diffrn_reflns_number            42555
_diffrn_reflns_point_group_measured_fraction_full 1.000
_diffrn_reflns_point_group_measured_fraction_max 0.999
_diffrn_reflns_theta_full        24.869
_diffrn_reflns_theta_max         27.021
_diffrn_reflns_theta_min         1.475
_exptl_absorpt_coefficient_mu    1.434
_exptl_absorpt_correction_T_max  1.0000
_exptl_absorpt_correction_T_min  0.1407
_exptl_absorpt_correction_type   multi-scans
_exptl_absorpt_process_details   'ABSCOR (Rigaku, 1995)'
_exptl_crystal_colour            yellow
_exptl_crystal_density_diffrn    1.524
_exptl_crystal_description       block
_exptl_crystal_F_000             5980
_exptl_crystal_size_max          0.100
_exptl_crystal_size_mid          0.100
_exptl_crystal_size_min          0.100
_refine_diff_density_max         1.896
_refine_diff_density_min         -1.058
_refine_diff_density_rms         0.190
_refine_ls_abs_structure_details
;
 Flack x determined using 2927 quotients [(I+)-(I-)]/[(I+)+(I-)]
 (Parsons, Flack and Wagner, Acta Cryst. B69 (2013) 249-259).
;
_refine_ls_abs_structure_Flack   0.09(4)
_refine_ls_extinction_method     none
_refine_ls_goodness_of_fit_ref   1.064
_refine_ls_hydrogen_treatment    constr
_refine_ls_matrix_type           full
_refine_ls_number_parameters     366
_refine_ls_number_reflns         10000
_refine_ls_number_restraints     90
_refine_ls_restrained_S_all      1.064
_refine_ls_R_factor_all          0.1254
_refine_ls_R_factor_gt           0.1054
_refine_ls_shift/su_max          0.000
_refine_ls_shift/su_mean         0.000
_refine_ls_structure_factor_coef Fsqd
_refine_ls_weighting_details
'w=1/[\s^2^(Fo^2^)+(0.1512P)^2^+74.9188P] where P=(Fo^2^+2Fc^2^)/3'
_refine_ls_weighting_scheme      calc
_refine_ls_wR_factor_gt          0.2571
_refine_ls_wR_factor_ref         0.2820
_reflns_Friedel_coverage         0.865
_reflns_Friedel_fraction_full    1.000
_reflns_Friedel_fraction_max     0.998
_reflns_number_gt                8103
_reflns_number_total             10000
_reflns_threshold_expression     'I > 2\s(I)'
_cod_data_source_file            c8sc04204g2.cif
_cod_data_source_block           Na6-1
_cod_original_cell_volume        13102(11)
_cod_database_code               1550127
_shelx_space_group_comment
;
The symmetry employed for this shelxl refinement is uniquely defined
by the following loop, which should always be used as a source of
symmetry information in preference to the above space-group names.
They are only intended as comments.
;
_shelx_estimated_absorpt_t_min   0.870
_shelx_estimated_absorpt_t_max   0.870
_shelxl_version_number           2014-3
_shelx_res_file
;
TITL 1Na
REM  Yadorkari-X generated
CELL 0.70090 23.5744 23.5744 23.5744 90.0000 90.0000 90.0000
ZERR 4.0 0.0068 0.0068 0.0068 0.0000 0.0000 0.0000
LATT -1
SYMM 1/2-X, -Y, 1/2+Z
SYMM 1/2+X, 1/2-Y, -Z
SYMM -X, 1/2+Y, 1/2-Z
SYMM +Z, +X, +Y
SYMM +Y, +Z, +X
SYMM 1/2-Z, -X, 1/2+Y
SYMM -Y, 1/2+Z, 1/2-X
SYMM 1/2+Z, 1/2-X, -Y
SYMM 1/2-Y, -Z, 1/2+X
SYMM -Z, 1/2+X, 1/2-Y
SYMM 1/2+Y, 1/2-Z, -X
REM  SPGR P213 cubic
SFAC C H O N Rh Zn S Na
DISP C 0.003 0.0016 11.
DISP H 0. 0. 0.7
DISP O 0.0105 0.0059 30.9
DISP N 0.0059 0.0032 18.8
DISP Rh -1.1344 0.9003 3788.4
DISP Zn 0.2986 1.4035 5640.9
DISP S 0.1221 0.1211 503.5
DISP Na 0.0361 0.0244 109.6
UNIT 144 240 316 48 16 16 48 4
SIZE 0.10 0.10 0.10
TEMP -173.0
L.S. 20
FMAP 2
PLAN -200
ACTA
CONF
HTAB
LIST 4
OMIT -10.000000 55.000000
OMIT   0   1   1
OMIT  -1   1   2
EQIV $1 1-X, -1/2+Y, 1/2-Z
EQIV $2 1-X, 1/2+Y, 1/2-Z
EQIV $3 1/2-Z, 1-X, -1/2+Y
EQIV $4 1-Y, 1/2+Z, 1/2-X
EQIV $5 1/2+Z, 3/2-X, 1-Y
EQIV $6 3/2-Y, 1-Z, -1/2+X
EQIV $7 -1/2+X, 3/2-Y, 1-Z

DFIX -2.56 0.01 O22 O22_$5 O22 O22_$6 O22_$5 O22_$6
DFIX -2.56 0.01 O6 O23_$7 O19 O29B O13 O24
FLAT C2 C3 O2 O3
DFIX 1.30 0.02 C3 O2 C3 O3
FLAT C5 C6 O4 O5
DFIX 1.30 0.02 C6 O4 C6 O5
FLAT C8 C9 O6 O7
DFIX 1.30 0.02 C9 O6 C9 O7
FLAT C11 C12 O8 O9
DFIX 1.30 0.02 C12 O8 C12 O9
SIMU C2 C3 O2 O3
SIMU C5 C6 O4 O5
SIMU C8 C9 O6 O7
SIMU C11 C12 O8 O9
HTAB N1 O12
HTAB N1 O18_$1
HTAB N2 O27A
HTAB N2 O2_$2
HTAB N3 O19
HTAB N3 O2_$2
HTAB N4 O25
HTAB N4 O3_$2
HTAB C1 S4_$3
HTAB C4 S1
HTAB C7 S3_$3
HTAB C8 O16_$2
HTAB C10 S2_$4
HTAB N1 O12
HTAB N1 O18_$1
HTAB N2 O27A
HTAB N2 O2_$2
HTAB N3 O19
HTAB N3 O2_$2
HTAB N4 O25
HTAB N4 O3_$2
HTAB C1 S4_$3
HTAB C4 S1
HTAB C7 S3_$3
HTAB C8 O16_$2
HTAB C10 S2_$4
HTAB N1 O12
HTAB N1 O18_$1
HTAB N2 O27A
HTAB N2 O2_$2
HTAB N3 O19
HTAB N3 O2_$2
HTAB N4 O25
HTAB N4 O3_$2
HTAB C1 S4_$3
HTAB C4 S1
HTAB C7 S3_$3
HTAB C8 O16_$2
HTAB C10 S2_$4
HTAB N1 O12
HTAB N1 O18_$1
HTAB N2 O27A
HTAB N2 O2_$2
HTAB N3 O19
HTAB N3 O2_$2
HTAB N4 O25
HTAB N4 O3_$2
HTAB C1 S4_$3
HTAB C4 S1
HTAB C7 S3_$3
HTAB C8 O16_$2
HTAB C10 S2_$4
HTAB N1 O12
HTAB N1 O18_$1
HTAB N2 O27A
HTAB N2 O2_$2
HTAB N3 O19
HTAB N3 O2_$2
HTAB N4 O25
HTAB N4 O3_$2
HTAB C1 S4_$3
HTAB C4 S1
HTAB C7 S3_$3
HTAB C8 O16_$2
HTAB C10 S2_$4

WGHT    0.151200   74.918808
FVAR       1.30842
RH1   5    0.397394    0.602606    0.102606    10.33333    0.03390    0.03390 =
         0.03390   -0.00039    0.00039    0.00039
RH2   5    0.386072    0.843960    0.251244    11.00000    0.04306    0.03050 =
         0.04801   -0.00078   -0.01165   -0.00808
ZN1   6    0.363826    0.679848    0.245796    11.00000    0.03172    0.02926 =
         0.03087    0.00303   -0.00743   -0.00383
ZN2   6    0.248496    0.751504    0.251504    10.33333    0.03392    0.03392 =
         0.03392    0.00061   -0.00061   -0.00061
S1    7    0.433501    0.649515    0.181930    11.00000    0.03201    0.03739 =
         0.04071    0.00303   -0.00843    0.00120
S2    7    0.396102    0.757793    0.298382    11.00000    0.05608    0.03583 =
         0.04422   -0.00082   -0.01780   -0.01231
S3    7    0.286924    0.843181    0.252271    11.00000    0.04266    0.03144 =
         0.05556   -0.00156   -0.00065   -0.00313
S4    7    0.395099    0.805784    0.160537    11.00000    0.03619    0.03714 =
         0.04784    0.00249   -0.00666   -0.01049
O1    3    0.296882    0.703118    0.203118    10.33333    0.03044    0.03044 =
         0.03044    0.01556   -0.01556   -0.01556
O2    3    0.515487    0.452747    0.172324    11.00000    0.16731    0.05681 =
         0.28434    0.00780   -0.14562    0.03383
O3    3    0.547750    0.502718    0.244016    11.00000    0.33687    0.17649 =
         0.25745    0.03545   -0.12754    0.16325
O4    3    0.589100    0.836023    0.263578    11.00000    0.09261    0.17274 =
         0.33095    0.10827   -0.04297   -0.00805
O5    3    0.587018    0.777456    0.337060    11.00000    0.12977    0.16319 =
         0.49540    0.12242   -0.17471   -0.03582
O6    3    0.356892    0.931165    0.432624    11.00000    0.15502    0.24015 =
         0.12649   -0.11341   -0.04576    0.05038
O7    3    0.267168    0.957809    0.409983    11.00000    0.12621    0.13669 =
         0.19124   -0.09241    0.05468   -0.01250
O8    3    0.349789    1.007572    0.144107    11.00000    0.31560    0.11298 =
         0.17265    0.06445    0.01593    0.09111
O9    3    0.406458    0.984745    0.071510    11.00000    0.16650    0.09609 =
         0.12269    0.06505   -0.03530   -0.05550
N1    4    0.444574    0.533018    0.132201    11.00000    0.05782    0.04285 =
         0.06527    0.00659    0.00236    0.01484
AFIX  23
H1A   2    0.420533    0.507457    0.148285    11.00000   -1.20000
H1B   2    0.461749    0.515809    0.102220    11.00000   -1.20000
AFIX   0
N2    4    0.474730    0.848771    0.256366    11.00000    0.04891    0.03604 =
         0.08286   -0.00418   -0.01788   -0.01108
AFIX  23
H2A   2    0.489712    0.839406    0.222046    11.00000   -1.20000
H2B   2    0.484800    0.885246    0.263998    11.00000   -1.20000
AFIX   0
N3    4    0.377908    0.884113    0.330439    11.00000    0.06854    0.03876 =
         0.05678   -0.00674   -0.01188   -0.00926
AFIX  23
H3A   2    0.384240    0.858148    0.358292    11.00000   -1.20000
H3B   2    0.405048    0.911397    0.333440    11.00000   -1.20000
AFIX   0
N4    4    0.383209    0.922135    0.210354    11.00000    0.04829    0.03961 =
         0.06260    0.00050   -0.00885   -0.01244
AFIX  23
H4A   2    0.346847    0.935078    0.210891    11.00000   -1.20000
H4B   2    0.404857    0.947256    0.230111    11.00000   -1.20000
AFIX   0
C1    1    0.463226    0.587178    0.217255    11.00000    0.06075    0.04759 =
         0.04325    0.01554   -0.01174    0.00925
AFIX  23
H1    2    0.492815    0.599013    0.244605    11.00000   -1.20000
H2    2    0.433063    0.566990    0.238378    11.00000   -1.20000
AFIX   0
C2    1    0.488093    0.549178    0.174069    11.00000    0.06428    0.05455 =
         0.06066    0.01272   -0.02016    0.01645
AFIX  13
H3    2    0.517402    0.571711    0.153271    11.00000   -1.20000
AFIX   0
C3    1    0.517953    0.498510    0.199040    11.00000    0.07844    0.06758 =
         0.11122    0.01534   -0.04374    0.04338
C4    1    0.473655    0.752305    0.292448    11.00000    0.04464    0.04738 =
         0.09339    0.02034   -0.02290   -0.00955
AFIX  23
H4    2    0.488341    0.725883    0.321598    11.00000   -1.20000
H5    2    0.484024    0.737270    0.254633    11.00000   -1.20000
AFIX   0
C5    1    0.499851    0.810873    0.300718    11.00000    0.09477    0.06297 =
         0.15485    0.03426   -0.09841   -0.04692
AFIX  13
H6    2    0.487633    0.825362    0.338668    11.00000   -1.20000
AFIX   0
C6    1    0.561356    0.807121    0.300808    11.00000    0.08477    0.09424 =
         0.24621    0.06990   -0.10297   -0.03517
C7    1    0.276923    0.868140    0.325484    11.00000    0.06040    0.06563 =
         0.06924   -0.03613    0.00630   -0.01727
AFIX  23
H7    2    0.239083    0.885923    0.329416    11.00000   -1.20000
H8    2    0.279009    0.835650    0.352009    11.00000   -1.20000
AFIX   0
C8    1    0.321959    0.910241    0.339577    11.00000    0.08185    0.04793 =
         0.07525   -0.01823   -0.01487   -0.00882
AFIX  13
H9    2    0.318337    0.942323    0.312064    11.00000   -1.20000
AFIX   0
C9    1    0.315042    0.934207    0.397371    11.00000    0.11528    0.09228 =
         0.13018   -0.07509   -0.01253   -0.00866
C10   1    0.378080    0.870048    0.121522    11.00000    0.05806    0.05000 =
         0.05465    0.00115    0.00238   -0.01608
AFIX  23
H10   2    0.393276    0.867294    0.082470    11.00000   -1.20000
H11   2    0.336389    0.874444    0.119060    11.00000   -1.20000
AFIX   0
C11   1    0.403254    0.920703    0.150762    11.00000    0.06916    0.04373 =
         0.07075    0.01713   -0.01438   -0.03290
AFIX  13
H12   2    0.445551    0.917520    0.150311    11.00000   -1.20000
AFIX   0
C12   1    0.385661    0.975131    0.120651    11.00000    0.13239    0.05482 =
         0.10548    0.03650   -0.02037   -0.02826
NA1   8    0.465138    0.943583   -0.006865    10.33333    0.11686
O10   3    0.498336    0.846711    0.034705    11.00000    0.18396
O11   3    0.415377    0.978026   -0.103982    11.00000    0.25508
O12   3    0.384412    0.454138    0.211997    11.00000    0.21235
O13   3    0.673312    0.614525    0.380549    11.00000    0.33619
O14   3    0.635676    0.572487    0.148559    11.00000    0.23603
O15   3    0.268080    0.406747    0.174824    11.00000    0.25983
O16   3    0.681608    0.538495    0.241081    11.00000    0.34183
O17   3    0.125977    0.874023    0.374023    10.33333    0.29135
O18   3    0.528513    0.930785    0.442659    11.00000    0.33845
O19   3    0.427961    0.811186    0.441719    11.00000    0.23748
O20   3    0.844983    0.655017    0.344983    10.33333    0.41401
O21   3    0.752240    0.641883    0.251201    11.00000    0.72902
O22   3    0.676052    0.737664    0.201536    11.00000    0.39514
O23   3    0.866249    0.563056    0.459487    11.00000    0.34481
O24   3    0.764915    0.573442    0.421915    11.00000    0.53898
O25   3    0.261002    0.964981    0.186661    11.00000    0.52828
O26   3    0.201337    0.992442    0.290402    11.00000    0.62019
PART 1
O27A  3    0.541230    0.830687    0.143214    10.50000    0.17434
O28A  3    0.526479    0.647114    0.427973    10.50000    0.18614
PART 2
O27B  3    0.648556    0.851444    0.148556    10.33333    0.34919
O28B  3    0.573587    0.622467    0.327833    10.50000    0.24612
O29B  3    0.520771    0.755047    0.444230    10.50000    0.13382
PART 0

HKLF 4 1 1 0 0 0 1 0 0 0 1

REM  1Na
REM R1 =  0.1054 for    8103 Fo > 4sig(Fo)  and  0.1254 for all   10000 data
REM    366 parameters refined using     90 restraints

END

WGHT      0.1513     74.8744

REM Instructions for potential hydrogen bonds
HTAB N1 O12
HTAB N1 O18_$1
HTAB N2 O27A
HTAB N2 O2_$2
HTAB N3 O19
HTAB N3 O2_$2
HTAB N4 O25
HTAB N4 O3_$2
HTAB C1 S4_$3
HTAB C4 S1
HTAB C7 S3_$3
HTAB C8 O16_$2
HTAB C10 S2_$4

REM Highest difference peak  1.896,  deepest hole -1.058,  1-sigma level  0.190
Q1    1   0.4229  0.5771  0.0771  10.33333  0.05    1.27
Q2    1   0.5698  0.5598 -0.0412  11.00000  0.05    1.15
Q3    1   0.4078  0.8674  0.2772  11.00000  0.05    1.13
Q4    1   0.5223  0.9662  0.0425  11.00000  0.05    1.12
Q5    1   0.3737  0.6280  0.0810  11.00000  0.05    1.10
Q6    1   0.2704  0.7296  0.2296  10.33333  0.05    1.09
Q7    1   0.4223  0.6283  0.0793  11.00000  0.05    1.09
Q8    1   0.4474  1.0423 -0.0566  11.00000  0.05    1.00
Q9    1   0.3617  0.8696  0.2293  11.00000  0.05    1.00
Q10   1   0.4070  0.8655  0.2242  11.00000  0.05    1.00
Q11   1   0.3615  0.8228  0.2783  11.00000  0.05    0.99
Q12   1   0.3922  0.6602  0.2182  11.00000  0.05    0.98
Q13   1   0.4319  1.0573 -0.0283  11.00000  0.05    0.98
Q14   1   0.4090  0.9589 -0.1328  11.00000  0.05    0.98
Q15   1   0.3756  0.6244  0.1244  10.33333  0.05    0.95
Q16   1   0.3601  0.8664  0.2704  11.00000  0.05    0.93
Q17   1   0.5315  0.8182  0.0536  11.00000  0.05    0.85
Q18   1   0.4078  0.8182  0.2778  11.00000  0.05    0.83
Q19   1   0.3574  0.8187  0.2280  11.00000  0.05    0.83
Q20   1   0.3932  0.8429 -0.0321  11.00000  0.05    0.82
Q21   1   0.2813  0.6637  0.2014  11.00000  0.05    0.80
Q22   1   0.3632  0.6321  0.2798  11.00000  0.05    0.78
Q23   1   0.2722  0.7287  0.2783  11.00000  0.05    0.78
Q24   1   0.5018  0.5100  0.0178  11.00000  0.05    0.77
Q25   1   0.4935  0.5294 -0.0176  11.00000  0.05    0.77
Q26   1   0.3845  0.7136  0.2695  11.00000  0.05    0.77
Q27   1   0.3995  0.6751  0.2058  11.00000  0.05    0.75
Q28   1   0.4489  0.9984 -0.2098  11.00000  0.05    0.74
Q29   1   0.5865  0.8411  0.2844  11.00000  0.05    0.73
Q30   1   0.4883  0.5413 -0.0297  11.00000  0.05    0.73
Q31   1   0.2564  0.7564 -0.2564  10.33333  0.05    0.73
Q32   1   0.4795  0.4670  0.2259  11.00000  0.05    0.72
Q33   1   0.5695  0.5003  0.2015  11.00000  0.05    0.71
Q34   1   0.3889  0.7026  0.2643  11.00000  0.05    0.71
Q35   1   0.3918  0.6876  0.1938  11.00000  0.05    0.70
Q36   1   0.5270  0.5626 -0.0309  11.00000  0.05    0.70
Q37   1   0.3365  0.6566  0.2726  11.00000  0.05    0.70
Q38   1   0.3876  0.8237 -0.0546  11.00000  0.05    0.70
Q39   1   0.2832  0.9268  0.0190  11.00000  0.05    0.68
Q40   1   0.3437  0.5376  0.1696  11.00000  0.05    0.66
Q41   1   0.3824  0.7934  0.2125  11.00000  0.05    0.65
Q42   1   0.3633  0.5983  0.1449  11.00000  0.05    0.65
Q43   1   0.2878  0.8702 -0.1706  11.00000  0.05    0.65
Q44   1   0.4464  0.6916 -0.1386  11.00000  0.05    0.64
Q45   1   0.4052  0.6529  0.2471  11.00000  0.05    0.64
Q46   1   0.3297  0.8110  0.2551  11.00000  0.05    0.64
Q47   1   0.5618  0.6906  0.1308  11.00000  0.05    0.64
Q48   1   0.5682  0.7940  0.2611  11.00000  0.05    0.64
Q49   1   0.3626  0.6016  0.0603  11.00000  0.05    0.63
Q50   1   0.3890  0.6965  0.2105  11.00000  0.05    0.62
Q51   1   0.3418  0.7065  0.2714  11.00000  0.05    0.62
Q52   1   0.3697  0.7313  0.2755  11.00000  0.05    0.62
Q53   1   0.5091  0.4780  0.2431  11.00000  0.05    0.62
Q54   1   0.3376  1.0271 -0.1497  11.00000  0.05    0.61
Q55   1   0.3079  0.7069  0.2485  11.00000  0.05    0.61
Q56   1   0.2227  0.9751  0.1837  11.00000  0.05    0.61
Q57   1   0.4029  1.0454 -0.1826  11.00000  0.05    0.60
Q58   1   0.5797  0.8002  0.2270  11.00000  0.05    0.60
Q59   1   0.3193  0.7051  0.1677  11.00000  0.05    0.60
Q60   1   0.5706  0.6701  0.1203  11.00000  0.05    0.60
Q61   1   0.4292  0.5702 -0.0981  11.00000  0.05    0.60
Q62   1   0.2095  0.9474  0.1376  11.00000  0.05    0.59
Q63   1   0.4372  0.5718 -0.0895  11.00000  0.05    0.59
Q64   1   0.2995  0.8967 -0.1627  11.00000  0.05    0.59
Q65   1   0.3803  0.7116  0.2212  11.00000  0.05    0.58
Q66   1   0.2632  0.8235 -0.2890  11.00000  0.05    0.58
Q67   1   0.2501  0.8478 -0.2684  11.00000  0.05    0.58
Q68   1   0.5935  0.7510  0.2758  11.00000  0.05    0.58
Q69   1   0.2970  0.7970 -0.2970  10.33333  0.05    0.57
Q70   1   0.2505  0.9251 -0.0370  11.00000  0.05    0.57
Q71   1   0.1950  0.9878  0.2236  11.00000  0.05    0.56
Q72   1   0.4549  0.5451  0.0451  10.33333  0.05    0.56
Q73   1   0.3490  0.8787  0.2508  11.00000  0.05    0.56
Q74   1   0.4661  0.7492 -0.2020  11.00000  0.05    0.56
Q75   1   0.5910  0.8146  0.3083  11.00000  0.05    0.56
Q76   1   0.4285  0.7519 -0.1142  11.00000  0.05    0.55
Q77   1   0.5814  0.6752  0.1108  11.00000  0.05    0.55
Q78   1   0.3869  0.9209 -0.0497  11.00000  0.05    0.55
Q79   1   0.2266  0.7279  0.2747  11.00000  0.05    0.55
Q80   1   0.4184  0.8249  0.1276  11.00000  0.05    0.55
Q81   1   0.1904  0.9420  0.0200  11.00000  0.05    0.55
Q82   1   0.4548  0.6239  0.2061  11.00000  0.05    0.54
Q83   1   0.5897  0.5727  0.0089  11.00000  0.05    0.54
Q84   1   0.4101  0.8213  0.2297  11.00000  0.05    0.54
Q85   1   0.1937  0.9282  0.1549  11.00000  0.05    0.54
Q86   1   0.5664  0.9336  0.0664  10.33333  0.05    0.54
Q87   1   0.5776  0.8511  0.1294  11.00000  0.05    0.54
Q88   1   0.2803  0.9875 -0.1775  11.00000  0.05    0.53
Q89   1   0.5480  0.6392  0.1357  11.00000  0.05    0.53
Q90   1   0.5628  0.6485  0.1276  11.00000  0.05    0.53
Q91   1   0.3116  0.9107 -0.0597  11.00000  0.05    0.53
Q92   1   0.4347  1.0159 -0.1710  11.00000  0.05    0.52
Q93   1   0.3327  0.9892  0.1317  11.00000  0.05    0.52
Q94   1   0.5179  0.4874  0.1981  11.00000  0.05    0.52
Q95   1   0.5233  0.7799  0.0874  11.00000  0.05    0.50
Q96   1   0.4459  0.7726  0.1588  11.00000  0.05    0.50
Q97   1   0.5303  0.7550  0.0940  11.00000  0.05    0.50
Q98   1   0.4198  0.9475 -0.1707  11.00000  0.05    0.49
Q99   1   0.1731  0.9304  0.0655  11.00000  0.05    0.49
Q100  1   0.4369  1.0137 -0.1566  11.00000  0.05    0.49
Q101  1   0.3303  1.0592  0.0870  11.00000  0.05    0.49
Q102  1   0.1923  0.9808  0.2113  11.00000  0.05    0.49
Q103  1   0.3202  0.8046 -0.0898  11.00000  0.05    0.48
Q104  1   0.3542  0.8403  0.1703  11.00000  0.05    0.48
Q105  1   0.5878  0.7878  0.2810  11.00000  0.05    0.48
Q106  1   0.3226  0.8488 -0.1785  11.00000  0.05    0.48
Q107  1   0.2877  0.6387  0.2324  11.00000  0.05    0.48
Q108  1   0.6738  0.8262  0.1738  10.33333  0.05    0.47
Q109  1   0.3197  0.8970 -0.0708  11.00000  0.05    0.47
Q110  1   0.5404  0.7442  0.1068  11.00000  0.05    0.47
Q111  1   0.5798  0.6093  0.0615  11.00000  0.05    0.47
Q112  1   0.4460  1.0279 -0.1756  11.00000  0.05    0.47
Q113  1   0.5278  0.8347  0.1488  11.00000  0.05    0.47
Q114  1   0.3124  0.9283 -0.3663  11.00000  0.05    0.47
Q115  1   0.3796  0.9389  0.2394  11.00000  0.05    0.46
Q116  1   0.1893  0.7532  0.2426  11.00000  0.05    0.46
Q117  1   0.4396  1.0588 -0.1561  11.00000  0.05    0.46
Q118  1   0.3684  0.7488  0.2088  11.00000  0.05    0.46
Q119  1   0.5895  0.6790  0.2105  11.00000  0.05    0.46
Q120  1   0.2373  0.9878  0.0723  11.00000  0.05    0.45
Q121  1   0.2976  0.8078 -0.1671  11.00000  0.05    0.45
Q122  1   0.2897  0.9162 -0.4040  11.00000  0.05    0.45
Q123  1   0.3132  0.8884 -0.1347  11.00000  0.05    0.45
Q124  1   0.5318  0.7910  0.0952  11.00000  0.05    0.45
Q125  1   0.5342  0.4541  0.1726  11.00000  0.05    0.45
Q126  1   0.2863  0.8272 -0.1668  11.00000  0.05    0.45
Q127  1   0.3961  1.0109  0.1484  11.00000  0.05    0.45
Q128  1   0.2705  0.8410 -0.1770  11.00000  0.05    0.45
Q129  1   0.4855  0.8570  0.0267  11.00000  0.05    0.45
Q130  1   0.2960  0.8956 -0.3220  11.00000  0.05    0.45
Q131  1   0.5427  0.8483  0.3678  11.00000  0.05    0.44
Q132  1   0.5054  0.5276  0.1803  11.00000  0.05    0.44
Q133  1   0.2180  0.9598 -0.0059  11.00000  0.05    0.44
Q134  1   0.4332  0.7085  0.1537  11.00000  0.05    0.44
Q135  1   0.4598  0.8587 -0.0030  11.00000  0.05    0.44
Q136  1   0.3226  0.8732 -0.0595  11.00000  0.05    0.44
Q137  1   0.2215  0.8661 -0.1990  11.00000  0.05    0.44
Q138  1   0.3534  0.9484  0.1913  11.00000  0.05    0.43
Q139  1   0.5521  0.8711  0.1379  11.00000  0.05    0.43
Q140  1   0.3793  0.9293  0.1758  11.00000  0.05    0.43
Q141  1   0.5437  0.8079  0.1562  11.00000  0.05    0.43
Q142  1   0.5355  0.5296 -0.0585  11.00000  0.05    0.43
Q143  1   0.4134  0.7616 -0.1080  11.00000  0.05    0.43
Q144  1   0.4320  0.7796  0.1807  11.00000  0.05    0.43
Q145  1   0.3901  0.9170  0.5015  11.00000  0.05    0.43
Q146  1   0.5986  0.8268  0.2081  11.00000  0.05    0.43
Q147  1   0.4125  0.9191 -0.2027  11.00000  0.05    0.43
Q148  1   0.4308  0.7419 -0.1340  11.00000  0.05    0.42
Q149  1   0.3781  0.7920 -0.0894  11.00000  0.05    0.42
Q150  1   0.3683  0.9875  0.5307  11.00000  0.05    0.42
Q151  1   0.2470  0.8389 -0.1983  11.00000  0.05    0.42
Q152  1   0.5067  0.5524  0.1430  11.00000  0.05    0.42
Q153  1   0.3724  1.0323  0.1368  11.00000  0.05    0.42
Q154  1   0.5771  0.8023  0.0881  11.00000  0.05    0.41
Q155  1   0.3149  0.8644 -0.1096  11.00000  0.05    0.41
Q156  1   0.5773  0.9415  0.0093  11.00000  0.05    0.41
Q157  1   0.3282  0.8282 -0.3282  10.33333  0.05    0.41
Q158  1   0.3784  1.0325 -0.0192  11.00000  0.05    0.41
Q159  1   0.2297  0.8587 -0.3154  11.00000  0.05    0.41
Q160  1   0.3238  0.9022  0.1889  11.00000  0.05    0.41
Q161  1   0.4196  0.8132 -0.1277  11.00000  0.05    0.41
Q162  1   0.5117  0.4493  0.0908  11.00000  0.05    0.41
Q163  1   0.3605  0.7618  0.2658  11.00000  0.05    0.41
Q164  1   0.3669  0.9243  0.2262  11.00000  0.05    0.41
Q165  1   0.5592  0.8388  0.1078  11.00000  0.05    0.41
Q166  1   0.3243  0.9003  0.3173  11.00000  0.05    0.41
Q167  1   0.2554  0.8617  0.2194  11.00000  0.05    0.40
Q168  1   0.3482  0.8975 -0.2106  11.00000  0.05    0.40
Q169  1   0.4101  0.9457  0.1909  11.00000  0.05    0.40
Q170  1   0.4274  0.9476  0.0301  11.00000  0.05    0.40
Q171  1   0.2121  0.8889 -0.1720  11.00000  0.05    0.40
Q172  1   0.6200  0.8800  0.1200  10.33333  0.05    0.40
Q173  1   0.1793  0.7989 -0.2020  11.00000  0.05    0.40
Q174  1   0.2316  0.8595 -0.1924  11.00000  0.05    0.40
Q175  1   0.5642  0.8034  0.3205  11.00000  0.05    0.40
Q176  1   0.4140  0.7172  0.2448  11.00000  0.05    0.40
Q177  1   0.2369  0.8696 -0.1806  11.00000  0.05    0.40
Q178  1   0.2620  0.8617  0.2807  11.00000  0.05    0.40
Q179  1   0.3241  0.7924  0.1797  11.00000  0.05    0.39
Q180  1   0.4114  1.0888 -0.1591  11.00000  0.05    0.39
Q181  1   0.3428  0.9491 -0.0101  11.00000  0.05    0.39
Q182  1   0.3342  0.8715  0.3480  11.00000  0.05    0.39
Q183  1   0.4370  0.8407 -0.0210  11.00000  0.05    0.39
Q184  1   0.3354  0.9626 -0.4479  11.00000  0.05    0.39
Q185  1   0.2277  0.9687  0.0871  11.00000  0.05    0.39
Q186  1   0.3387  0.8460  0.3088  11.00000  0.05    0.39
Q187  1   0.3379  0.8141 -0.1506  11.00000  0.05    0.39
Q188  1   0.5307  0.8567  0.1188  11.00000  0.05    0.39
Q189  1   0.3333  0.9174 -0.0957  11.00000  0.05    0.38
Q190  1   0.3400  0.9369  0.0060  11.00000  0.05    0.38
Q191  1   0.2378  0.9801  0.0081  11.00000  0.05    0.38
Q192  1   0.3289  0.9024  0.4384  11.00000  0.05    0.38
Q193  1   0.4488  0.8440 -0.0054  11.00000  0.05    0.38
Q194  1   0.3062  0.9238 -0.4476  11.00000  0.05    0.38
Q195  1   0.3390  0.5402  0.0385  11.00000  0.05    0.38
Q196  1   0.5623  0.7647  0.0595  11.00000  0.05    0.38
Q197  1   0.4619  0.9430  0.0658  11.00000  0.05    0.38
Q198  1   0.2994  0.8719 -0.3106  11.00000  0.05    0.38
Q199  1   0.3887  0.8715 -0.1894  11.00000  0.05    0.38
Q200  1   0.2270  0.9805  0.0792  11.00000  0.05    0.37
;
_shelx_res_checksum              98106
loop_
_space_group_symop_operation_xyz
'x, y, z'
'-x+1/2, -y, z+1/2'
'x+1/2, -y+1/2, -z'
'-x, y+1/2, -z+1/2'
'z, x, y'
'y, z, x'
'-z+1/2, -x, y+1/2'
'-y, z+1/2, -x+1/2'
'z+1/2, -x+1/2, -y'
'-y+1/2, -z, x+1/2'
'-z, x+1/2, -y+1/2'
'y+1/2, -z+1/2, -x'
loop_
_atom_site_label
_atom_site_type_symbol
_atom_site_fract_x
_atom_site_fract_y
_atom_site_fract_z
_atom_site_U_iso_or_equiv
_atom_site_adp_type
_atom_site_occupancy
_atom_site_site_symmetry_order
_atom_site_calc_flag
_atom_site_refinement_flags_posn
_atom_site_refinement_flags_adp
_atom_site_refinement_flags_occupancy
_atom_site_disorder_assembly
_atom_site_disorder_group
Rh1 Rh 0.39739(5) 0.60261(5) 0.10261(5) 0.0339(4) Uani 1 3 d S T P . .
Rh2 Rh 0.38607(5) 0.84396(5) 0.25124(6) 0.0405(3) Uani 1 1 d . . . . .
Zn1 Zn 0.36383(7) 0.67985(7) 0.24580(7) 0.0306(4) Uani 1 1 d . . . . .
Zn2 Zn 0.24850(7) 0.75150(7) 0.25150(7) 0.0339(6) Uani 1 3 d S T P . .
S1 S 0.43350(16) 0.64952(17) 0.18193(17) 0.0367(8) Uani 1 1 d . . . . .
S2 S 0.3961(2) 0.75779(18) 0.29838(18) 0.0454(10) Uani 1 1 d . . . . .
S3 S 0.28692(18) 0.84318(17) 0.2523(2) 0.0432(9) Uani 1 1 d . . . . .
S4 S 0.39510(17) 0.80578(17) 0.16054(19) 0.0404(8) Uani 1 1 d . . . . .
O1 O 0.2969(5) 0.7031(5) 0.2031(5) 0.030(4) Uani 1 3 d S T P . .
O2 O 0.5155(13) 0.4527(9) 0.1723(15) 0.169(16) Uani 1 1 d D U . . .
O3 O 0.548(2) 0.5027(15) 0.2440(17) 0.26(2) Uani 1 1 d D U . . .
O4 O 0.5891(13) 0.8360(17) 0.264(2) 0.20(2) Uani 1 1 d D U . . .
O5 O 0.5870(16) 0.7775(17) 0.337(3) 0.26(3) Uani 1 1 d D U . . .
O6 O 0.3569(14) 0.9312(17) 0.4326(13) 0.174(16) Uani 1 1 d D U . . .
O7 O 0.2672(12) 0.9578(13) 0.4100(15) 0.151(13) Uani 1 1 d D U . . .
O8 O 0.350(2) 1.0076(14) 0.1441(16) 0.200(19) Uani 1 1 d D U . . .
O9 O 0.4065(13) 0.9847(10) 0.0715(10) 0.128(10) Uani 1 1 d D U . . .
N1 N 0.4446(7) 0.5330(7) 0.1322(8) 0.055(4) Uani 1 1 d . . . . .
H1A H 0.4205 0.5075 0.1483 0.066 Uiso 1 1 calc R U . . .
H1B H 0.4617 0.5158 0.1022 0.066 Uiso 1 1 calc R U . . .
N2 N 0.4747(7) 0.8488(6) 0.2564(9) 0.056(4) Uani 1 1 d . . . . .
H2A H 0.4897 0.8394 0.2220 0.067 Uiso 1 1 calc R U . . .
H2B H 0.4848 0.8852 0.2640 0.067 Uiso 1 1 calc R U . . .
N3 N 0.3779(8) 0.8841(7) 0.3304(7) 0.055(4) Uani 1 1 d . . . . .
H3A H 0.3842 0.8581 0.3583 0.066 Uiso 1 1 calc R U . . .
H3B H 0.4050 0.9114 0.3334 0.066 Uiso 1 1 calc R U . . .
N4 N 0.3832(7) 0.9221(6) 0.2104(7) 0.050(4) Uani 1 1 d . . . . .
H4A H 0.3468 0.9351 0.2109 0.060 Uiso 1 1 calc R U . . .
H4B H 0.4049 0.9473 0.2301 0.060 Uiso 1 1 calc R U . . .
C1 C 0.4632(9) 0.5872(8) 0.2173(8) 0.051(4) Uani 1 1 d . . . . .
H1 H 0.4928 0.5990 0.2446 0.061 Uiso 1 1 calc R U . . .
H2 H 0.4331 0.5670 0.2384 0.061 Uiso 1 1 calc R U . . .
C2 C 0.4881(10) 0.5492(9) 0.1741(10) 0.060(5) Uani 1 1 d . U . . .
H3 H 0.5174 0.5717 0.1533 0.072 Uiso 1 1 calc R U . . .
C3 C 0.5180(10) 0.4985(10) 0.1990(11) 0.086(8) Uani 1 1 d D U . . .
C4 C 0.4737(8) 0.7523(9) 0.2924(11) 0.062(6) Uani 1 1 d . . . . .
H4 H 0.4883 0.7259 0.3216 0.074 Uiso 1 1 calc R U . . .
H5 H 0.4840 0.7373 0.2546 0.074 Uiso 1 1 calc R U . . .
C5 C 0.4999(13) 0.8109(11) 0.3007(16) 0.104(12) Uani 1 1 d . U . . .
H6 H 0.4876 0.8254 0.3387 0.125 Uiso 1 1 calc R U . . .
C6 C 0.5614(13) 0.8071(11) 0.3008(16) 0.142(15) Uani 1 1 d D U . . .
C7 C 0.2769(10) 0.8681(10) 0.3255(10) 0.065(6) Uani 1 1 d . . . . .
H7 H 0.2391 0.8859 0.3294 0.078 Uiso 1 1 calc R U . . .
H8 H 0.2790 0.8356 0.3520 0.078 Uiso 1 1 calc R U . . .
C8 C 0.3220(11) 0.9102(9) 0.3396(11) 0.068(6) Uani 1 1 d . U . . .
H9 H 0.3183 0.9423 0.3121 0.082 Uiso 1 1 calc R U . . .
C9 C 0.3150(12) 0.9342(10) 0.3974(13) 0.113(11) Uani 1 1 d D U . . .
C10 C 0.3781(9) 0.8700(8) 0.1215(9) 0.054(5) Uani 1 1 d . . . . .
H10 H 0.3933 0.8673 0.0825 0.065 Uiso 1 1 calc R U . . .
H11 H 0.3364 0.8744 0.1191 0.065 Uiso 1 1 calc R U . . .
C11 C 0.4033(10) 0.9207(8) 0.1508(10) 0.061(5) Uani 1 1 d . U . . .
H12 H 0.4456 0.9175 0.1503 0.073 Uiso 1 1 calc R U . . .
C12 C 0.3857(13) 0.9751(11) 0.1207(11) 0.098(9) Uani 1 1 d D U . . .
Na1 Na 0.465(2) 0.944(2) -0.007(2) 0.117(14) Uiso 0.3333 1 d . . P . .
O10 O 0.4983(19) 0.847(2) 0.0347(19) 0.184(15) Uiso 1 1 d . . . . .
O11 O 0.415(3) 0.978(3) -0.104(3) 0.26(3) Uiso 1 1 d . . . . .
O12 O 0.384(2) 0.454(2) 0.212(2) 0.212(19) Uiso 1 1 d . . . . .
O13 O 0.673(4) 0.615(4) 0.381(3) 0.34(4) Uiso 1 1 d D . . . .
O14 O 0.636(3) 0.572(2) 0.149(3) 0.24(2) Uiso 1 1 d . . . . .
O15 O 0.268(3) 0.407(3) 0.175(3) 0.26(3) Uiso 1 1 d . . . . .
O16 O 0.682(4) 0.538(4) 0.241(4) 0.34(4) Uiso 1 1 d . . . . .
O17 O 0.126(3) 0.874(3) 0.374(3) 0.29(6) Uiso 1 3 d S . P . .
O18 O 0.529(4) 0.931(4) 0.443(4) 0.34(4) Uiso 1 1 d . . . . .
O19 O 0.428(2) 0.811(2) 0.442(3) 0.24(2) Uiso 1 1 d D . . . .
O20 O 0.845(5) 0.655(5) 0.345(5) 0.41(9) Uiso 1 3 d S . P . .
O21 O 0.752(10) 0.642(8) 0.251(9) 0.73(15) Uiso 1 1 d . . . . .
O22 O 0.676(4) 0.738(3) 0.202(5) 0.40(5) Uiso 1 1 d D . . . .
O23 O 0.866(4) 0.563(4) 0.4595(14) 0.34(4) Uiso 1 1 d . . . . .
O24 O 0.765(4) 0.573(6) 0.422(6) 0.54(9) Uiso 1 1 d D . . . .
O25 O 0.261(6) 0.965(6) 0.187(6) 0.53(8) Uiso 1 1 d . . . . .
O26 O 0.201(7) 0.992(8) 0.290(7) 0.62(11) Uiso 1 1 d . . . . .
O27A O 0.541(3) 0.831(3) 0.143(4) 0.17(3) Uiso 0.5 1 d . . P A 1
O28A O 0.526(4) 0.647(4) 0.428(4) 0.19(3) Uiso 0.5 1 d . . P B 1
O27B O 0.649(4) 0.851(4) 0.149(4) 0.35(7) Uiso 1 3 d S . P C 2
O28B O 0.574(5) 0.622(5) 0.328(5) 0.25(5) Uiso 0.5 1 d . . P D 2
O29B O 0.521(2) 0.755(3) 0.444(3) 0.134(19) Uiso 0.5 1 d D . P E 2
loop_
_atom_site_aniso_label
_atom_site_aniso_U_11
_atom_site_aniso_U_22
_atom_site_aniso_U_33
_atom_site_aniso_U_23
_atom_site_aniso_U_13
_atom_site_aniso_U_12
Rh1 0.0339(4) 0.0339(4) 0.0339(4) -0.0004(5) 0.0004(5) 0.0004(5)
Rh2 0.0431(7) 0.0305(6) 0.0480(7) -0.0008(5) -0.0117(6) -0.0081(5)
Zn1 0.0317(8) 0.0293(8) 0.0309(8) 0.0030(7) -0.0074(7) -0.0038(6)
Zn2 0.0339(6) 0.0339(6) 0.0339(6) 0.0006(7) -0.0006(7) -0.0006(7)
S1 0.0320(17) 0.0374(18) 0.0407(19) 0.0030(16) -0.0084(15) 0.0012(15)
S2 0.056(2) 0.0358(19) 0.044(2) -0.0008(17) -0.0178(19) -0.0123(19)
S3 0.0427(19) 0.0314(16) 0.056(2) -0.0016(19) -0.0007(19) -0.0031(16)
S4 0.0362(18) 0.0371(18) 0.048(2) 0.0025(17) -0.0067(17) -0.0105(16)
O1 0.030(4) 0.030(4) 0.030(4) 0.016(5) -0.016(5) -0.016(5)
O2 0.17(2) 0.057(11) 0.28(4) 0.008(18) -0.15(3) 0.034(14)
O3 0.34(5) 0.18(3) 0.26(4) 0.04(3) -0.13(4) 0.16(4)
O4 0.093(18) 0.17(3) 0.33(5) 0.11(4) -0.04(3) -0.01(2)
O5 0.13(3) 0.16(3) 0.50(7) 0.12(4) -0.17(4) -0.04(2)
O6 0.16(3) 0.24(4) 0.13(2) -0.11(3) -0.05(2) 0.05(3)
O7 0.13(2) 0.14(2) 0.19(3) -0.09(2) 0.05(2) -0.012(18)
O8 0.32(5) 0.11(2) 0.17(3) 0.06(2) 0.02(4) 0.09(3)
O9 0.17(2) 0.096(15) 0.123(18) 0.065(14) -0.035(17) -0.056(16)
N1 0.058(9) 0.043(8) 0.065(10) 0.007(8) 0.002(8) 0.015(7)
N2 0.049(8) 0.036(7) 0.083(12) -0.004(8) -0.018(9) -0.011(6)
N3 0.069(10) 0.039(7) 0.057(9) -0.007(7) -0.012(8) -0.009(7)
N4 0.048(8) 0.040(7) 0.063(9) 0.001(7) -0.009(7) -0.012(7)
C1 0.061(11) 0.048(9) 0.043(9) 0.016(8) -0.012(8) 0.009(9)
C2 0.064(12) 0.055(10) 0.061(11) 0.013(10) -0.020(10) 0.016(10)
C3 0.078(15) 0.068(14) 0.111(19) 0.015(14) -0.044(15) 0.043(13)
C4 0.045(9) 0.047(10) 0.093(15) 0.020(11) -0.023(10) -0.010(9)
C5 0.095(18) 0.063(13) 0.15(3) 0.034(15) -0.098(19) -0.047(13)
C6 0.085(19) 0.09(2) 0.25(4) 0.07(2) -0.10(2) -0.035(16)
C7 0.060(12) 0.066(13) 0.069(13) -0.036(12) 0.006(11) -0.017(10)
C8 0.082(15) 0.048(10) 0.075(14) -0.018(10) -0.015(13) -0.009(10)
C9 0.12(2) 0.092(18) 0.13(2) -0.075(18) -0.01(2) -0.009(18)
C10 0.058(11) 0.050(10) 0.055(10) 0.001(9) 0.002(9) -0.016(9)
C11 0.069(12) 0.044(9) 0.071(12) 0.017(9) -0.014(11) -0.033(9)
C12 0.13(2) 0.055(12) 0.11(2) 0.037(14) -0.020(18) -0.028(15)
loop_
_atom_type_symbol
_atom_type_description
_atom_type_scat_dispersion_real
_atom_type_scat_dispersion_imag
_atom_type_scat_source
C C 0.0030 0.0016 'International Tables Vol C Tables 4.2.6.8 and 6.1.1.4'
H H 0.0000 0.0000 'International Tables Vol C Tables 4.2.6.8 and 6.1.1.4'
O O 0.0105 0.0059 'International Tables Vol C Tables 4.2.6.8 and 6.1.1.4'
N N 0.0059 0.0032 'International Tables Vol C Tables 4.2.6.8 and 6.1.1.4'
Rh Rh -1.1344 0.9003 'International Tables Vol C Tables 4.2.6.8 and 6.1.1.4'
Zn Zn 0.2986 1.4035 'International Tables Vol C Tables 4.2.6.8 and 6.1.1.4'
S S 0.1221 0.1211 'International Tables Vol C Tables 4.2.6.8 and 6.1.1.4'
Na Na 0.0361 0.0244 'International Tables Vol C Tables 4.2.6.8 and 6.1.1.4'
loop_
_geom_angle_atom_site_label_1
_geom_angle_atom_site_label_2
_geom_angle_atom_site_label_3
_geom_angle
_geom_angle_site_symmetry_1
_geom_angle_site_symmetry_3
N1 Rh1 N1 91.2(7) 7_564 8_655
N1 Rh1 N1 91.2(7) 7_564 .
N1 Rh1 N1 91.2(7) 8_655 .
N1 Rh1 S1 84.9(5) 7_564 7_564
N1 Rh1 S1 176.1(5) 8_655 7_564
N1 Rh1 S1 89.0(5) . 7_564
N1 Rh1 S1 89.0(5) 7_564 8_655
N1 Rh1 S1 84.9(5) 8_655 8_655
N1 Rh1 S1 176.1(5) . 8_655
S1 Rh1 S1 94.90(14) 7_564 8_655
N1 Rh1 S1 176.1(5) 7_564 .
N1 Rh1 S1 89.0(5) 8_655 .
N1 Rh1 S1 84.9(5) . .
S1 Rh1 S1 94.90(14) 7_564 .
S1 Rh1 S1 94.90(14) 8_655 .
N4 Rh2 N2 90.6(6) . .
N4 Rh2 N3 90.6(7) . .
N2 Rh2 N3 90.9(7) . .
N4 Rh2 S2 175.9(5) . .
N2 Rh2 S2 85.3(5) . .
N3 Rh2 S2 88.8(5) . .
N4 Rh2 S4 85.4(5) . .
N2 Rh2 S4 89.0(6) . .
N3 Rh2 S4 176.0(5) . .
S2 Rh2 S4 95.27(15) . .
N4 Rh2 S3 88.8(5) . .
N2 Rh2 S3 175.3(5) . .
N3 Rh2 S3 84.4(5) . .
S2 Rh2 S3 95.15(17) . .
S4 Rh2 S3 95.61(16) . .
O1 Zn1 S4 109.04(17) . 7_564
O1 Zn1 S1 108.8(5) . .
S4 Zn1 S1 109.34(16) 7_564 .
O1 Zn1 S2 108.4(4) . .
S4 Zn1 S2 110.66(16) 7_564 .
S1 Zn1 S2 110.61(17) . .
O1 Zn2 S3 108.28(13) . 8_655
O1 Zn2 S3 108.28(13) . .
S3 Zn2 S3 110.63(12) 8_655 .
O1 Zn2 S3 108.28(13) . 7_564
S3 Zn2 S3 110.64(12) 8_655 7_564
S3 Zn2 S3 110.63(12) . 7_564
C1 S1 Rh1 97.1(7) . .
C1 S1 Zn1 102.8(7) . .
Rh1 S1 Zn1 113.85(16) . .
C4 S2 Rh2 97.2(7) . .
C4 S2 Zn1 103.1(8) . .
Rh2 S2 Zn1 113.50(17) . .
C7 S3 Rh2 97.8(7) . .
C7 S3 Zn2 104.6(8) . .
Rh2 S3 Zn2 113.19(18) . .
C10 S4 Rh2 97.0(7) . .
C10 S4 Zn1 102.3(7) . 8_655
Rh2 S4 Zn1 112.99(18) . 8_655
Zn1 O1 Zn1 109.6(6) 7_564 8_655
Zn1 O1 Zn1 109.6(6) 7_564 .
Zn1 O1 Zn1 109.6(6) 8_655 .
Zn1 O1 Zn2 109.4(6) 7_564 .
Zn1 O1 Zn2 109.4(6) 8_655 .
Zn1 O1 Zn2 109.4(6) . .
C12 O9 Na1 123(2) . 9_566
C12 O9 Na1 144(2) . .
Na1 O9 Na1 67(3) 9_566 .
C2 N1 Rh1 112.9(12) . .
C5 N2 Rh2 113.7(16) . .
C8 N3 Rh2 113.6(13) . .
C11 N4 Rh2 114.1(12) . .
C2 C1 S1 109.0(13) . .
N1 C2 C1 110.0(17) . .
N1 C2 C3 112.5(18) . .
C1 C2 C3 113.4(18) . .
O2 C3 O3 121(2) . .
O2 C3 C2 118(2) . .
O3 C3 C2 121(2) . .
C5 C4 S2 109.2(19) . .
C6 C5 N2 116(3) . .
C6 C5 C4 110(2) . .
N2 C5 C4 106.9(16) . .
O5 C6 O4 121(4) . .
O5 C6 C5 121(3) . .
O4 C6 C5 118(3) . .
C8 C7 S3 109.3(17) . .
N3 C8 C9 113(2) . .
N3 C8 C7 109.1(18) . .
C9 C8 C7 112(2) . .
O6 C9 O7 123(3) . .
O6 C9 C8 119(3) . .
O7 C9 C8 118(3) . .
C11 C10 S4 110.1(15) . .
N4 C11 C10 109.1(15) . .
N4 C11 C12 110(2) . .
C10 C11 C12 110.4(18) . .
O8 C12 O9 123(3) . .
O8 C12 C11 119(2) . .
O9 C12 C11 118(3) . .
O9 Na1 O9 164(3) 10_664 .
O9 Na1 O10 92(2) 10_664 .
O9 Na1 O10 103(2) . .
O9 Na1 O11 62.2(19) 10_664 .
O9 Na1 O11 106(2) . .
O10 Na1 O11 136(3) . .
O9 Na1 Na1 118(2) 10_664 9_566
O9 Na1 Na1 54(2) . 9_566
O10 Na1 Na1 114.7(16) . 9_566
O11 Na1 Na1 109.6(17) . 9_566
O9 Na1 Na1 59(2) 10_664 10_664
O9 Na1 Na1 114(2) . 10_664
O10 Na1 Na1 109.7(18) . 10_664
O11 Na1 Na1 88(2) . 10_664
Na1 Na1 Na1 60.000(4) 9_566 10_664
O9 Na1 O28A 108(3) 10_664 8_655
O9 Na1 O28A 69(2) . 8_655
O10 Na1 O28A 104(3) . 8_655
O11 Na1 O28A 58(3) . 8_655
Na1 Na1 O28A 116(3) 9_566 8_655
Na1 Na1 O28A 144(2) 10_664 8_655
loop_
_geom_bond_atom_site_label_1
_geom_bond_atom_site_label_2
_geom_bond_distance
_geom_bond_site_symmetry_2
Rh1 N1 2.101(15) 7_564
Rh1 N1 2.101(15) 8_655
Rh1 N1 2.101(15) .
Rh1 S1 2.333(4) 7_564
Rh1 S1 2.333(4) 8_655
Rh1 S1 2.333(4) .
Rh2 N4 2.081(16) .
Rh2 N2 2.097(15) .
Rh2 N3 2.102(17) .
Rh2 S2 2.327(4) .
Rh2 S4 2.330(5) .
Rh2 S3 2.338(4) .
Zn1 O1 1.950(7) .
Zn1 S4 2.335(4) 7_564
Zn1 S1 2.340(4) .
Zn1 S2 2.344(4) .
Zn2 O1 1.98(2) .
Zn2 S3 2.343(4) 8_655
Zn2 S3 2.343(4) .
Zn2 S3 2.343(4) 7_564
S1 C1 1.829(18) .
S2 C4 1.84(2) .
S3 C7 1.84(2) .
S4 C10 1.82(2) .
S4 Zn1 2.335(4) 8_655
O1 Zn1 1.950(7) 7_564
O1 Zn1 1.950(7) 8_655
O2 C3 1.25(2) .
O3 C3 1.28(2) .
O4 C6 1.29(2) .
O5 C6 1.26(2) .
O6 C9 1.29(2) .
O7 C9 1.29(2) .
O8 C12 1.27(2) .
O9 C12 1.28(2) .
O9 Na1 2.39(6) 9_566
O9 Na1 2.50(6) .
N1 C2 1.47(3) .
N2 C5 1.50(3) .
N3 C8 1.47(3) .
N4 C11 1.48(3) .
C1 C2 1.48(3) .
C2 C3 1.51(3) .
C4 C5 1.53(3) .
C5 C6 1.45(4) .
C7 C8 1.49(3) .
C8 C9 1.48(4) .
C10 C11 1.50(3) .
C11 C12 1.52(3) .
Na1 O9 2.39(6) 10_664
Na1 O10 2.61(7) .
Na1 O11 2.70(8) .
Na1 Na1 2.70(9) 9_566
Na1 Na1 2.70(9) 10_664
Na1 O28A 2.71(11) 8_655
O28A Na1 2.71(11) 7_564
loop_
_geom_hbond_atom_site_label_D
_geom_hbond_atom_site_label_H
_geom_hbond_atom_site_label_A
_geom_hbond_distance_DH
_geom_hbond_distance_HA
_geom_hbond_distance_DA
_geom_hbond_angle_DHA
_geom_hbond_site_symmetry_A
N1 H1A O12 0.91 2.14 3.00(5) 158.6 .
N1 H1B O18 0.91 2.28 3.05(9) 142.9 4_645
N2 H2A O27A 0.91 2.23 3.12(9) 167.1 .
N2 H2B O2 0.91 2.19 2.98(3) 145.3 4_655
N3 H3A O19 0.91 2.48 3.35(6) 160.1 .
N3 H3B O2 0.91 2.12 2.99(3) 160.6 4_655
N4 H4A O25 0.91 2.22 3.10(14) 164.3 .
N4 H4B O3 0.91 1.82 2.72(3) 168.7 4_655
C1 H2 S4 0.99 2.86 3.61(2) 133.1 7_564
C4 H5 S1 0.99 2.94 3.68(2) 132.6 .
C7 H8 S3 0.99 2.99 3.74(2) 133.8 7_564
C8 H9 O16 1.00 2.59 3.57(9) 167.3 4_655
C10 H11 S2 0.99 2.88 3.65(2) 135.1 8_655
N1 H1A O12 0.91 2.14 3.00(5) 158.6 .
N1 H1B O18 0.91 2.28 3.05(9) 142.9 4_645
N2 H2A O27A 0.91 2.23 3.12(9) 167.1 .
N2 H2B O2 0.91 2.19 2.98(3) 145.3 4_655
N3 H3A O19 0.91 2.48 3.35(6) 160.1 .
N3 H3B O2 0.91 2.12 2.99(3) 160.6 4_655
N4 H4A O25 0.91 2.22 3.10(14) 164.3 .
N4 H4B O3 0.91 1.82 2.72(3) 168.7 4_655
C1 H2 S4 0.99 2.86 3.61(2) 133.1 7_564
C4 H5 S1 0.99 2.94 3.68(2) 132.6 .
C7 H8 S3 0.99 2.99 3.74(2) 133.8 7_564
C8 H9 O16 1.00 2.59 3.57(9) 167.3 4_655
C10 H11 S2 0.99 2.88 3.65(2) 135.1 8_655
N1 H1A O12 0.91 2.14 3.00(5) 158.6 .
N1 H1B O18 0.91 2.28 3.05(9) 142.9 4_645
N2 H2A O27A 0.91 2.23 3.12(9) 167.1 .
N2 H2B O2 0.91 2.19 2.98(3) 145.3 4_655
N3 H3A O19 0.91 2.48 3.35(6) 160.1 .
N3 H3B O2 0.91 2.12 2.99(3) 160.6 4_655
N4 H4A O25 0.91 2.22 3.10(14) 164.3 .
N4 H4B O3 0.91 1.82 2.72(3) 168.7 4_655
C1 H2 S4 0.99 2.86 3.61(2) 133.1 7_564
C4 H5 S1 0.99 2.94 3.68(2) 132.6 .
C7 H8 S3 0.99 2.99 3.74(2) 133.8 7_564
C8 H9 O16 1.00 2.59 3.57(9) 167.3 4_655
C10 H11 S2 0.99 2.88 3.65(2) 135.1 8_655
N1 H1A O12 0.91 2.14 3.00(5) 158.6 .
N1 H1B O18 0.91 2.28 3.05(9) 142.9 4_645
N2 H2A O27A 0.91 2.23 3.12(9) 167.1 .
N2 H2B O2 0.91 2.19 2.98(3) 145.3 4_655
N3 H3A O19 0.91 2.48 3.35(6) 160.1 .
N3 H3B O2 0.91 2.12 2.99(3) 160.6 4_655
N4 H4A O25 0.91 2.22 3.10(14) 164.3 .
N4 H4B O3 0.91 1.82 2.72(3) 168.7 4_655
C1 H2 S4 0.99 2.86 3.61(2) 133.1 7_564
C4 H5 S1 0.99 2.94 3.68(2) 132.6 .
C7 H8 S3 0.99 2.99 3.74(2) 133.8 7_564
C8 H9 O16 1.00 2.59 3.57(9) 167.3 4_655
C10 H11 S2 0.99 2.88 3.65(2) 135.1 8_655
N1 H1A O12 0.91 2.14 3.00(5) 158.6 .
N1 H1B O18 0.91 2.28 3.05(9) 142.9 4_645
N2 H2A O27A 0.91 2.23 3.12(9) 167.1 .
N2 H2B O2 0.91 2.19 2.98(3) 145.3 4_655
N3 H3A O19 0.91 2.48 3.35(6) 160.1 .
N3 H3B O2 0.91 2.12 2.99(3) 160.6 4_655
N4 H4A O25 0.91 2.22 3.10(14) 164.3 .
N4 H4B O3 0.91 1.82 2.72(3) 168.7 4_655
C1 H2 S4 0.99 2.86 3.61(2) 133.1 7_564
C4 H5 S1 0.99 2.94 3.68(2) 132.6 .
C7 H8 S3 0.99 2.99 3.74(2) 133.8 7_564
C8 H9 O16 1.00 2.59 3.57(9) 167.3 4_655
C10 H11 S2 0.99 2.88 3.65(2) 135.1 8_655
loop_
_geom_torsion_atom_site_label_1
_geom_torsion_atom_site_label_2
_geom_torsion_atom_site_label_3
_geom_torsion_atom_site_label_4
_geom_torsion
_geom_torsion_site_symmetry_1
Rh1 S1 C1 C2 38.4(16) .
Zn1 S1 C1 C2 154.9(14) .
Rh1 N1 C2 C1 47(2) .
Rh1 N1 C2 C3 174.7(16) .
S1 C1 C2 N1 -58(2) .
S1 C1 C2 C3 175.4(16) .
N1 C2 C3 O2 20(3) .
C1 C2 C3 O2 145(3) .
N1 C2 C3 O3 -165(3) .
C1 C2 C3 O3 -39(3) .
Rh2 S2 C4 C5 39(2) .
Zn1 S2 C4 C5 155.1(18) .
Rh2 N2 C5 C6 172.2(19) .
Rh2 N2 C5 C4 49(3) .
S2 C4 C5 C6 175(2) .
S2 C4 C5 N2 -58(3) .
N2 C5 C6 O5 178(3) .
C4 C5 C6 O5 -60(4) .
N2 C5 C6 O4 0(4) .
C4 C5 C6 O4 122(3) .
Rh2 S3 C7 C8 35.6(19) .
Zn2 S3 C7 C8 152.2(16) .
Rh2 N3 C8 C9 175.2(15) .
Rh2 N3 C8 C7 49(2) .
S3 C7 C8 N3 -56(2) .
S3 C7 C8 C9 177.5(18) .
N3 C8 C9 O6 1(3) .
C7 C8 C9 O6 125(3) .
N3 C8 C9 O7 -179(2) .
C7 C8 C9 O7 -55(3) .
Rh2 S4 C10 C11 38.0(16) .
Zn1 S4 C10 C11 153.4(15) 8_655
Rh2 N4 C11 C10 45(2) .
Rh2 N4 C11 C12 165.7(13) .
S4 C10 C11 N4 -55(2) .
S4 C10 C11 C12 -176.0(18) .
Na1 O9 C12 O8 93(4) 9_566
Na1 O9 C12 O8 -170(4) .
Na1 O9 C12 C11 -90(3) 9_566
Na1 O9 C12 C11 7(5) .
N4 C11 C12 O8 -13(3) .
C10 C11 C12 O8 108(3) .
N4 C11 C12 O9 170(2) .
C10 C11 C12 O9 -70(3) .
