#------------------------------------------------------------------------------
#$Date: 2018-11-13 01:24:40 +0200 (Tue, 13 Nov 2018) $
#$Revision: 211906 $
#$URL: file:///home/coder/svn-repositories/cod/cif/1/55/02/1550234.cif $
#------------------------------------------------------------------------------
#
# This file is available in the Crystallography Open Database (COD),
# http://www.crystallography.net/
#
# All data on this site have been placed in the public domain by the
# contributors.
#
data_1550234
loop_
_publ_author_name
'Anker, Mathew'
'Lein, Matthias'
'Coles, Martyn P.'
_publ_section_title
;
 Reduction of Organic Azides by Indyl-Anions. Isolation and Reactivity
 Studies of Indium-Nitrogen Multiple Bonds
;
_journal_name_full               'Chemical Science'
_journal_paper_doi               10.1039/C8SC04078H
_journal_year                    2019
_chemical_formula_moiety         'C80 H132 In2 K2 N12 O2 Si6, 2(C7 H8)'
_chemical_formula_sum            'C94 H148 In2 K2 N12 O2 Si6'
_chemical_formula_weight         1954.62
_space_group_IT_number           2
_symmetry_cell_setting           triclinic
_symmetry_Int_Tables_number      2
_symmetry_space_group_name_Hall  '-P 1'
_symmetry_space_group_name_H-M   'P -1'
_atom_sites_solution_hydrogens   geom
_audit_conform_dict_location     ftp://ftp.iucr.org/pub/cif_core.dic
_audit_conform_dict_name         cif_core.dic
_audit_conform_dict_version      2.4.3
_audit_creation_date             2018-06-28T18:10:46-00:00
_audit_creation_method           'WinGX routine CIF_UPDATE'
_audit_update_record
;
2018-08-23 deposited with the CCDC.
2018-11-12 downloaded from the CCDC.
;
_cell_angle_alpha                69.847(2)
_cell_angle_beta                 89.715(2)
_cell_angle_gamma                79.713(2)
_cell_formula_units_Z            2
_cell_length_a                   17.0589(4)
_cell_length_b                   18.1114(6)
_cell_length_c                   18.1867(4)
_cell_measurement_reflns_used    17773
_cell_measurement_temperature    120.00(10)
_cell_measurement_theta_max      73.096
_cell_measurement_theta_min      4.059
_cell_measurement_wavelength     1.54184
_cell_volume                     5180.4(3)
_computing_cell_refinement       'CrysAlisPro 1.171.38.46 (Rigaku OD, 2015)'
_computing_data_collection       'CrysAlisPro 1.171.38.46 (Rigaku OD, 2015)'
_computing_data_reduction        'CrysAlisPro 1.171.38.46 (Rigaku OD, 2015)'
_computing_molecular_graphics    'Ortep for Windows (Farrugia, 2012)'
_computing_publication_material  'WinGX publication routines (Farrugia, 2012)'
_computing_structure_refinement  'SHELXL-2014/6 (Sheldrick, 2014)'
_diffrn_ambient_temperature      120.00(10)
_diffrn_detector                 'CCD plate'
_diffrn_detector_area_resol_mean 8.0856
_diffrn_measured_fraction_theta_full 0.9986
_diffrn_measured_fraction_theta_max 0.9807
_diffrn_measurement_device       'four-circle diffractometer'
_diffrn_measurement_device_type  'SuperNova, Dual, Cu at zero, EosS2'
_diffrn_measurement_method       '\w scans'
_diffrn_orient_matrix_type
'CrysAlisPro convention (1999,Acta A55,543-557)'
_diffrn_orient_matrix_UB_11      -0.0259775
_diffrn_orient_matrix_UB_12      0.0423852
_diffrn_orient_matrix_UB_13      -0.0877385
_diffrn_orient_matrix_UB_21      0.0872398
_diffrn_orient_matrix_UB_22      -0.0176719
_diffrn_orient_matrix_UB_23      -0.021101
_diffrn_orient_matrix_UB_31      -0.0130509
_diffrn_orient_matrix_UB_32      -0.0800195
_diffrn_orient_matrix_UB_33      -0.0054105
_diffrn_radiation_monochromator  mirror
_diffrn_radiation_probe          x-ray
_diffrn_radiation_type           'Cu K\a'
_diffrn_radiation_wavelength     1.54184
_diffrn_reflns_av_R_equivalents  0.1039
_diffrn_reflns_av_unetI/netI     0.1454
_diffrn_reflns_Laue_measured_fraction_full 0.976
_diffrn_reflns_Laue_measured_fraction_max 1
_diffrn_reflns_limit_h_max       21
_diffrn_reflns_limit_h_min       -21
_diffrn_reflns_limit_k_max       22
_diffrn_reflns_limit_k_min       -22
_diffrn_reflns_limit_l_max       22
_diffrn_reflns_limit_l_min       -22
_diffrn_reflns_number            85510
_diffrn_reflns_point_group_measured_fraction_full 0.976
_diffrn_reflns_point_group_measured_fraction_max 1
_diffrn_reflns_theta_full        66.4915
_diffrn_reflns_theta_max         74.1554
_diffrn_reflns_theta_min         3.5846
_diffrn_source                   'micro-focus sealed X-ray tube'
_exptl_absorpt_coefficient_mu    5.288
_exptl_absorpt_correction_T_max  0.911
_exptl_absorpt_correction_T_min  0.569
_exptl_absorpt_correction_type   gaussian
_exptl_absorpt_process_details
;
        CrysAlisPro 1.171.38.46 (Rigaku Oxford Diffraction, 2015)
Numerical absorption correction based on gaussian integration over
                        a multifaceted crystal model
        Empirical absorption correction using spherical harmonics,
 implemented in SCALE3 ABSPACK scaling algorithm.
;
_exptl_crystal_colour            colourless
_exptl_crystal_density_diffrn    1.253
_exptl_crystal_density_method    'not measured'
_exptl_crystal_description       plate
_exptl_crystal_F_000             2064
_exptl_crystal_size_max          0.165
_exptl_crystal_size_mid          0.129
_exptl_crystal_size_min          0.066
_refine_diff_density_max         2.534
_refine_diff_density_min         -1.317
_refine_diff_density_rms         0.137
_refine_ls_extinction_method     none
_refine_ls_goodness_of_fit_ref   1.058
_refine_ls_hydrogen_treatment    constr
_refine_ls_matrix_type           full
_refine_ls_number_constraints    0
_refine_ls_number_parameters     974
_refine_ls_number_reflns         18310
_refine_ls_number_restraints     1
_refine_ls_restrained_S_all      1.058
_refine_ls_R_factor_all          0.093
_refine_ls_R_factor_gt           0.0765
_refine_ls_shift/su_max          0
_refine_ls_shift/su_mean         0
_refine_ls_structure_factor_coef Fsqd
_refine_ls_weighting_details
'w=1/[\s^2^(Fo^2^)+(0.1075P)^2^+9.7857P] where P=(Fo^2^+2Fc^2^)/3'
_refine_ls_weighting_scheme      calc
_refine_ls_wR_factor_gt          0.1973
_refine_ls_wR_factor_ref         0.208
_reflns_number_gt                14075
_reflns_number_total             18310
_reflns_threshold_expression     'I > 2\s(I)'
_iucr_refine_instructions_details
;
TITL S18MDA41 in P-1
REM P-1 (#2 in standard setting)
CELL 1.54184  17.058929  18.111366  18.186665  69.8472  89.7151  79.7128
ZERR    2.00   0.000438   0.000592   0.000398   0.0025   0.0020   0.0024
LATT  1
SFAC C H N O Si K In
UNIT 188.00 296.00 24.00 4.00 12.00 4.00 4.00
BOND $H
ACTA
FREE C40 K2
FREE C79 K1
EADP C50 C50A
EXYZ C50 C50A
SADI C50 C52 C50A C52A
L.S. 24
FMAP 2
PLAN 5
TEMP -100
WGHT    0.107500    9.785700
FVAR       2.05009   0.40694
IN1   7    0.075161    0.278012    0.355762    11.00000    0.02299    0.03311 =
         0.02740   -0.01093    0.00513   -0.00463
IN2   7    0.425921    0.714897    0.203957    11.00000    0.02495    0.03783 =
         0.03196   -0.01594    0.00018   -0.00371
K1    6    0.155550    0.588874    0.297180    11.00000    0.04271    0.08744 =
         0.05499   -0.03605    0.01206   -0.02801
K2    6    0.346751    0.401339    0.363430    11.00000    0.04196    0.09707 =
         0.04943   -0.03131    0.01388   -0.03136
SI1   5   -0.014247    0.146261    0.468229    11.00000    0.03429    0.02867 =
         0.03009   -0.00666    0.00719   -0.00447
SI2   5    0.027757    0.139497    0.304805    11.00000    0.04827    0.03020 =
         0.03541   -0.01226    0.01309   -0.01083
SI3   5    0.259811    0.179814    0.469715    11.00000    0.03203    0.07061 =
         0.04747   -0.01472   -0.00524    0.00759
SI4   5    0.477266    0.849763    0.056933    11.00000    0.06177    0.03498 =
         0.03900   -0.00598   -0.00896   -0.01947
SI5   5    0.511844    0.849411    0.223025    11.00000    0.03814    0.03639 =
         0.04512   -0.02045   -0.00838   -0.00153
SI6   5    0.237374    0.811718    0.250114    11.00000    0.03228    0.06915 =
         0.06853   -0.03860    0.00070    0.00496
O1    4    0.031485    0.117612    0.400383    11.00000    0.04333    0.02421 =
         0.03455   -0.00627    0.00819   -0.00214
O2    4    0.469716    0.876114    0.134157    11.00000    0.04866    0.03576 =
         0.05273   -0.01390   -0.01676   -0.00548
N1    3   -0.016130    0.246843    0.435326    11.00000    0.02513    0.03368 =
         0.02972   -0.01255    0.01189   -0.00434
N2    3    0.061262    0.226898    0.269126    11.00000    0.03794    0.03486 =
         0.02709   -0.00741    0.01067   -0.01011
N3    3    0.101790    0.394578    0.319047    11.00000    0.02863    0.03785 =
         0.03852   -0.01654    0.00636   -0.01210
N4    3    0.178795    0.395359    0.344314    11.00000    0.02911    0.05760 =
         0.03018   -0.01246    0.00260   -0.01313
N5    3    0.221757    0.330298    0.389511    11.00000    0.03353    0.06861 =
         0.03720   -0.01869    0.01046   -0.01379
N6    3    0.191973    0.260827    0.409457    11.00000    0.01757    0.05435 =
         0.04350   -0.01608   -0.00020   -0.00138
N7    3    0.442397    0.761723    0.083846    11.00000    0.04007    0.04016 =
         0.03094   -0.01304   -0.00176   -0.01072
N8    3    0.515763    0.748108    0.260676    11.00000    0.02266    0.04433 =
         0.03487   -0.02026    0.00045   -0.00423
N9    3    0.399260    0.598353    0.248673    11.00000    0.02924    0.04683 =
         0.04155   -0.01923    0.01179   -0.01925
N10   3    0.322016    0.596390    0.274995    11.00000    0.03250    0.05619 =
         0.04745   -0.02796    0.01070   -0.01327
N11   3    0.279770    0.662095    0.274176    11.00000    0.02401    0.07030 =
         0.05935   -0.03928    0.00912   -0.01292
N12   3    0.308095    0.730648    0.245016    11.00000    0.02272    0.06355 =
         0.04983   -0.02937    0.00434   -0.00122
C1    1   -0.061284    0.300391    0.467901    11.00000    0.02823    0.03356 =
         0.03082   -0.01362    0.00902   -0.01272
C2    1   -0.143302    0.334929    0.438531    11.00000    0.02612    0.03239 =
         0.03559   -0.01159    0.00937   -0.00737
C3    1   -0.187088    0.391900    0.464922    11.00000    0.03101    0.05160 =
         0.03752   -0.01569    0.00977   -0.00620
AFIX  43
H3    2   -0.241776    0.411892    0.447864    11.00000   -1.20000
AFIX   0
C4    1   -0.151715    0.420410    0.516469    11.00000    0.04003    0.05018 =
         0.05203   -0.02919    0.01748   -0.00448
AFIX  43
H4    2   -0.180738    0.462234    0.531575    11.00000   -1.20000
AFIX   0
C5    1   -0.074446    0.386827    0.544697    11.00000    0.04253    0.05725 =
         0.04230   -0.03099    0.01262   -0.00995
AFIX  43
H5    2   -0.050939    0.404899    0.581009    11.00000   -1.20000
AFIX   0
C6    1   -0.029208    0.327317    0.522169    11.00000    0.03724    0.04376 =
         0.03289   -0.01783    0.01227   -0.01348
C7    1   -0.183380    0.313329    0.376747    11.00000    0.03352    0.04172 =
         0.03943   -0.01686    0.00068    0.00127
AFIX  13
H7    2   -0.146603    0.267602    0.368567    11.00000   -1.20000
AFIX   0
C8    1   -0.262070    0.286337    0.401321    11.00000    0.03364    0.06568 =
         0.05935   -0.02585   -0.00190   -0.01115
AFIX 137
H8A   2   -0.252828    0.240256    0.450455    11.00000   -1.50000
H8B   2   -0.284304    0.271065    0.360268    11.00000   -1.50000
H8C   2   -0.299722    0.330316    0.409057    11.00000   -1.50000
AFIX   0
C9    1   -0.198274    0.381901    0.298271    11.00000    0.07485    0.05697 =
         0.03823   -0.01561   -0.00122   -0.00626
AFIX 137
H9A   2   -0.236771    0.426567    0.303722    11.00000   -1.50000
H9B   2   -0.219675    0.363694    0.258986    11.00000   -1.50000
H9C   2   -0.147972    0.399622    0.281542    11.00000   -1.50000
AFIX   0
C10   1    0.056045    0.293812    0.556925    11.00000    0.03290    0.05892 =
         0.03362   -0.02122    0.00509   -0.01045
AFIX  13
H10   2    0.079467    0.251467    0.535272    11.00000   -1.20000
AFIX   0
C11   1    0.056806    0.254270    0.647016    11.00000    0.03803    0.07929 =
         0.03312   -0.02088    0.00317   -0.01178
AFIX 137
H11A  2    0.033634    0.294603    0.669594    11.00000   -1.50000
H11B  2    0.111908    0.231473    0.668480    11.00000   -1.50000
H11C  2    0.025358    0.211646    0.660133    11.00000   -1.50000
AFIX   0
C12   1    0.106978    0.357452    0.534618    11.00000    0.03664    0.07000 =
         0.04578   -0.02832    0.00879   -0.01541
AFIX 137
H12A  2    0.109653    0.378245    0.477461    11.00000   -1.50000
H12B  2    0.160905    0.334211    0.559285    11.00000   -1.50000
H12C  2    0.083432    0.401202    0.552630    11.00000   -1.50000
AFIX   0
C13   1   -0.113104    0.115637    0.484412    11.00000    0.04746    0.04313 =
         0.04754   -0.01830    0.01974   -0.02046
AFIX 137
H13A  2   -0.143980    0.133611    0.434050    11.00000   -1.50000
H13B  2   -0.141984    0.139968    0.519610    11.00000   -1.50000
H13C  2   -0.105469    0.057183    0.508108    11.00000   -1.50000
AFIX   0
C14   1    0.047166    0.088864    0.562473    11.00000    0.05064    0.04099 =
         0.03617   -0.00338    0.00064    0.00037
AFIX 137
H14A  2    0.042851    0.032285    0.578969    11.00000   -1.50000
H14B  2    0.027613    0.110475    0.603095    11.00000   -1.50000
H14C  2    0.103127    0.093841    0.554604    11.00000   -1.50000
AFIX   0
C15   1   -0.077017    0.144414    0.270955    11.00000    0.07411    0.04518 =
         0.04546   -0.00968    0.00598   -0.03360
AFIX 137
H15A  2   -0.094970    0.094860    0.301454    11.00000   -1.50000
H15B  2   -0.079009    0.150837    0.215203    11.00000   -1.50000
H15C  2   -0.111974    0.190121    0.278469    11.00000   -1.50000
AFIX   0
C16   1    0.090641    0.053594    0.286277    11.00000    0.08951    0.03870 =
         0.06568   -0.02859    0.04037   -0.02503
AFIX 137
H16A  2    0.146441    0.049734    0.302256    11.00000   -1.50000
H16B  2    0.086097    0.061668    0.230231    11.00000   -1.50000
H16C  2    0.072582    0.004035    0.316565    11.00000   -1.50000
AFIX   0
C17   1    0.083169    0.262739    0.189855    11.00000    0.04760    0.03505 =
         0.03100   -0.01899    0.01316   -0.01798
C18   1    0.027313    0.321662    0.132860    11.00000    0.04427    0.05321 =
         0.03638   -0.01896    0.00777   -0.02629
C19   1    0.050714    0.355475    0.056758    11.00000    0.05767    0.07386 =
         0.03058   -0.00788    0.00707   -0.03202
AFIX  43
H19   2    0.013897    0.395980    0.018642    11.00000   -1.20000
AFIX   0
C20   1    0.125667    0.331516    0.035806    11.00000    0.06697    0.08213 =
         0.03747   -0.02454    0.02218   -0.03766
AFIX  43
H20   2    0.139317    0.352829   -0.017084    11.00000   -1.20000
AFIX   0
C21   1    0.181744    0.275808    0.092339    11.00000    0.04567    0.06139 =
         0.04971   -0.02134    0.03561   -0.02457
AFIX  43
H21   2    0.234798    0.262455    0.078495    11.00000   -1.20000
AFIX   0
C22   1    0.161278    0.239553    0.168527    11.00000    0.04587    0.04568 =
         0.04283   -0.02432    0.02203   -0.02467
C23   1   -0.057353    0.352037    0.149929    11.00000    0.04122    0.05588 =
         0.02912   -0.00732   -0.00228   -0.02022
AFIX  13
H23   2   -0.063168    0.326928    0.207504    11.00000   -1.20000
AFIX   0
C24   1   -0.119386    0.327160    0.106004    11.00000    0.04555    0.06718 =
         0.04789   -0.01184   -0.00707   -0.02622
AFIX 137
H24A  2   -0.116813    0.353378    0.049302    11.00000   -1.50000
H24B  2   -0.172975    0.343408    0.121514    11.00000   -1.50000
H24C  2   -0.107713    0.268917    0.119338    11.00000   -1.50000
AFIX   0
C25   1   -0.075100    0.442276    0.129094    11.00000    0.04524    0.04968 =
         0.04501   -0.00425    0.00172   -0.01786
AFIX 137
H25A  2   -0.037290    0.457701    0.158913    11.00000   -1.50000
H25B  2   -0.129632    0.459061    0.142123    11.00000   -1.50000
H25C  2   -0.069834    0.468327    0.072795    11.00000   -1.50000
AFIX   0
C26   1    0.226368    0.181984    0.227188    11.00000    0.05049    0.04100 =
         0.05749   -0.01997    0.02312   -0.00323
AFIX  13
H26   2    0.201721    0.157166    0.277633    11.00000   -1.20000
AFIX   0
C27   1    0.288717    0.225657    0.242696    11.00000    0.04065    0.06537 =
         0.06206   -0.01891    0.01444   -0.00694
AFIX 137
H27A  2    0.310848    0.253507    0.193148    11.00000   -1.50000
H27B  2    0.331580    0.187015    0.278763    11.00000   -1.50000
H27C  2    0.264067    0.264710    0.266212    11.00000   -1.50000
AFIX   0
C28   1    0.267489    0.113820    0.198146    11.00000    0.07143    0.05724 =
         0.09068   -0.03511    0.02902   -0.00542
AFIX 137
H28A  2    0.227412    0.084855    0.188939    11.00000   -1.50000
H28B  2    0.308049    0.076698    0.238068    11.00000   -1.50000
H28C  2    0.292851    0.137066    0.149179    11.00000   -1.50000
AFIX   0
C29   1    0.071740    0.470789    0.260643    11.00000    0.03311    0.02444 =
         0.03729   -0.01003   -0.00128   -0.00922
C30   1    0.005963    0.521252    0.275022    11.00000    0.02807    0.03675 =
         0.04115   -0.01690    0.00835   -0.01084
C31   1   -0.017925    0.598301    0.220845    11.00000    0.03288    0.04158 =
         0.04717   -0.01826    0.00111   -0.00769
AFIX  43
H31   2   -0.063590    0.631845    0.229962    11.00000   -1.20000
AFIX   0
C32   1    0.023161    0.627855    0.153464    11.00000    0.04775    0.03736 =
         0.04241   -0.01438    0.00002   -0.01137
C33   1    0.085572    0.575199    0.138861    11.00000    0.04250    0.04640 =
         0.03131   -0.01426    0.00257   -0.01426
AFIX  43
H33   2    0.112427    0.593349    0.091949    11.00000   -1.20000
AFIX   0
C34   1    0.110514    0.497023    0.189904    11.00000    0.03324    0.04098 =
         0.03911   -0.02412    0.01001   -0.01286
C35   1   -0.039157    0.493035    0.348292    11.00000    0.04811    0.05059 =
         0.05141   -0.02205    0.02216   -0.01427
AFIX 137
H35A  2   -0.081831    0.536697    0.349352    11.00000   -1.50000
H35B  2   -0.002453    0.476807    0.394738    11.00000   -1.50000
H35C  2   -0.062405    0.447329    0.348233    11.00000   -1.50000
AFIX   0
C36   1   -0.001627    0.712387    0.098913    11.00000    0.05539    0.04796 =
         0.05191   -0.01276   -0.00204   -0.00868
AFIX 137
H36A  2    0.043459    0.729596    0.068304    11.00000   -1.50000
H36B  2   -0.018443    0.747201    0.129343    11.00000   -1.50000
H36C  2   -0.046154    0.715797    0.063319    11.00000   -1.50000
AFIX   0
C37   1    0.174520    0.440651    0.168475    11.00000    0.04307    0.03907 =
         0.03980   -0.01209    0.01253   -0.01321
AFIX 137
H37A  2    0.186517    0.465330    0.113617    11.00000   -1.50000
H37B  2    0.155972    0.390635    0.175330    11.00000   -1.50000
H37C  2    0.222813    0.429227    0.202502    11.00000   -1.50000
AFIX   0
C38   1    0.243416    0.089965    0.448808    11.00000    0.05829    0.05067 =
         0.05925   -0.01002   -0.00242    0.01773
AFIX 137
H38A  2    0.186254    0.088576    0.448559    11.00000   -1.50000
H38B  2    0.272314    0.041547    0.489416    11.00000   -1.50000
H38C  2    0.263042    0.092440    0.397436    11.00000   -1.50000
AFIX   0
C39   1    0.251064    0.163087    0.577084    11.00000    0.04933    0.09470 =
         0.04236   -0.01734   -0.01522    0.00746
AFIX 137
H39A  2    0.260937    0.210297    0.587594    11.00000   -1.50000
H39B  2    0.290430    0.116101    0.607916    11.00000   -1.50000
H39C  2    0.197264    0.154140    0.591723    11.00000   -1.50000
AFIX   0
C40   1    0.365302    0.196219    0.450108    11.00000    0.03070    0.11246 =
         0.08270   -0.02718   -0.00772    0.00463
AFIX 137
H40A  2    0.372299    0.212241    0.393597    11.00000   -1.50000
H40B  2    0.402884    0.146447    0.477684    11.00000   -1.50000
H40C  2    0.375473    0.238482    0.468869    11.00000   -1.50000
AFIX   0
C41   1    0.421352    0.726786    0.028789    11.00000    0.04165    0.04076 =
         0.02410   -0.01229    0.00130   -0.01406
C42   1    0.478084    0.668604    0.010904    11.00000    0.04359    0.06083 =
         0.02775   -0.01873    0.00771   -0.02626
C43   1    0.455752    0.634416   -0.042299    11.00000    0.05696    0.07305 =
         0.05184   -0.04061    0.01987   -0.03177
AFIX  43
H43   2    0.493155    0.594593   -0.053385    11.00000   -1.20000
AFIX   0
C44   1    0.379633    0.658053   -0.078983    11.00000    0.05703    0.08286 =
         0.04172   -0.03360    0.01093   -0.04134
AFIX  43
H44   2    0.365611    0.635306   -0.115811    11.00000   -1.20000
AFIX   0
C45   1    0.324993    0.713916   -0.062158    11.00000    0.05185    0.06064 =
         0.03675   -0.01521   -0.00371   -0.02618
AFIX  43
H45   2    0.273308    0.729670   -0.088069    11.00000   -1.20000
AFIX   0
C46   1    0.342702    0.749166   -0.007440    11.00000    0.04781    0.03823 =
         0.04160   -0.01203   -0.00890   -0.01456
C47   1    0.562939    0.639018    0.048186    11.00000    0.03961    0.05242 =
         0.04827   -0.02950    0.01667   -0.01764
AFIX  13
H47   2    0.568841    0.666916    0.086105    11.00000   -1.20000
AFIX   0
C48   1    0.578920    0.551244    0.093182    11.00000    0.04493    0.05426 =
         0.05772   -0.02757    0.00974   -0.01538
AFIX 137
H48A  2    0.539559    0.538713    0.132883    11.00000   -1.50000
H48B  2    0.632658    0.535201    0.119002    11.00000   -1.50000
H48C  2    0.575051    0.522114    0.057243    11.00000   -1.50000
AFIX   0
C49   1    0.624720    0.660260   -0.012715    11.00000    0.05575    0.09175 =
         0.05972   -0.04080    0.02697   -0.04045
AFIX 137
H49A  2    0.676240    0.655493    0.013773    11.00000   -1.50000
H49B  2    0.607374    0.715371   -0.048870    11.00000   -1.50000
H49C  2    0.630252    0.623568   -0.042189    11.00000   -1.50000
AFIX   0
C51   1    0.215409    0.758448    0.060337    11.00000    0.03737    0.07527 =
         0.07157   -0.04115   -0.00802   -0.00106
AFIX 137
H51A  2    0.195483    0.729046    0.030454    11.00000   -1.50000
H51B  2    0.170785    0.795583    0.070030    11.00000   -1.50000
H51C  2    0.240955    0.720529    0.110549    11.00000   -1.50000
AFIX   0
C53   1    0.583653    0.841564    0.029963    11.00000    0.07432    0.06250 =
         0.05835   -0.02649    0.01454   -0.04075
AFIX 137
H53A  2    0.603540    0.889083    0.029993    11.00000   -1.50000
H53B  2    0.587068    0.837723   -0.022446    11.00000   -1.50000
H53C  2    0.616069    0.793592    0.068216    11.00000   -1.50000
AFIX   0
C54   1    0.418989    0.931411   -0.026288    11.00000    0.12666    0.03974 =
         0.06115    0.00477   -0.04251   -0.03755
AFIX 137
H54A  2    0.364046    0.943870   -0.011915    11.00000   -1.50000
H54B  2    0.418771    0.914540   -0.072012    11.00000   -1.50000
H54C  2    0.443240    0.979130   -0.039079    11.00000   -1.50000
AFIX   0
C55   1    0.610790    0.881028    0.219436    11.00000    0.05145    0.03538 =
         0.05179   -0.01562   -0.00845   -0.01369
AFIX 137
H55A  2    0.644159    0.860434    0.184151    11.00000   -1.50000
H55B  2    0.637223    0.859582    0.272215    11.00000   -1.50000
H55C  2    0.602823    0.939630    0.200063    11.00000   -1.50000
AFIX   0
C56   1    0.447062    0.907140    0.274788    11.00000    0.05869    0.06306 =
         0.08938   -0.05599   -0.00761    0.00436
AFIX 137
H56A  2    0.449984    0.963995    0.251262    11.00000   -1.50000
H56B  2    0.465271    0.887411    0.330364    11.00000   -1.50000
H56C  2    0.391781    0.900447    0.270025    11.00000   -1.50000
AFIX   0
C57   1    0.562643    0.694509    0.328973    11.00000    0.03208    0.04230 =
         0.03482   -0.01699    0.00215   -0.01292
C58   1    0.528992    0.669596    0.402539    11.00000    0.03199    0.06191 =
         0.03688   -0.02006    0.00043   -0.00801
C59   1    0.574116    0.611558    0.466985    11.00000    0.04021    0.07572 =
         0.02476   -0.01257    0.00595   -0.01844
AFIX  43
H59   2    0.550548    0.594343    0.515976    11.00000   -1.20000
AFIX   0
C60   1    0.651354    0.578951    0.461243    11.00000    0.04491    0.06646 =
         0.03467   -0.01149   -0.00971   -0.00735
AFIX  43
H60   2    0.680645    0.538189    0.505359    11.00000   -1.20000
AFIX   0
C61   1    0.686504    0.605484    0.391184    11.00000    0.02812    0.04931 =
         0.04250   -0.01531    0.00390   -0.00767
AFIX  43
H61   2    0.741100    0.584657    0.387938    11.00000   -1.20000
AFIX   0
C62   1    0.643143    0.662788    0.324394    11.00000    0.02845    0.02994 =
         0.04052   -0.01141   -0.00181   -0.00370
C63   1    0.443529    0.702957    0.414116    11.00000    0.02382    0.08338 =
         0.04852   -0.03427    0.00400   -0.00882
AFIX  13
H63   2    0.420253    0.743921    0.362819    11.00000   -1.20000
AFIX   0
C64   1    0.441450    0.745474    0.474523    11.00000    0.03950    0.10267 =
         0.05478   -0.04704    0.00454   -0.01389
AFIX 137
H64A  2    0.460197    0.705957    0.526391    11.00000   -1.50000
H64B  2    0.386650    0.772251    0.476533    11.00000   -1.50000
H64C  2    0.476179    0.785256    0.459066    11.00000   -1.50000
AFIX   0
C65   1    0.392058    0.638386    0.437728    11.00000    0.03355    0.09578 =
         0.04565   -0.02840    0.00701   -0.01815
AFIX 137
H65A  2    0.390430    0.615599    0.396206    11.00000   -1.50000
H65B  2    0.337776    0.662183    0.445411    11.00000   -1.50000
H65C  2    0.414991    0.596009    0.486693    11.00000   -1.50000
AFIX   0
C66   1    0.684964    0.683520    0.248002    11.00000    0.03347    0.04043 =
         0.03777   -0.01417    0.00489   -0.00506
AFIX  13
H66   2    0.648772    0.728950    0.207879    11.00000   -1.20000
AFIX   0
C67   1    0.763241    0.711505    0.255904    11.00000    0.03237    0.06743 =
         0.05406   -0.00703    0.00819   -0.00984
AFIX 137
H67A  2    0.801326    0.666983    0.292339    11.00000   -1.50000
H67B  2    0.752738    0.755823    0.276015    11.00000   -1.50000
H67C  2    0.785651    0.729583    0.204405    11.00000   -1.50000
AFIX   0
C68   1    0.700205    0.614368    0.218134    11.00000    0.07433    0.05757 =
         0.04638   -0.01999    0.01173   -0.00739
AFIX 137
H68A  2    0.742142    0.572067    0.251908    11.00000   -1.50000
H68B  2    0.717288    0.632936    0.164347    11.00000   -1.50000
H68C  2    0.651071    0.593245    0.218772    11.00000   -1.50000
AFIX   0
C69   1    0.430575    0.521413    0.243784    11.00000    0.03070    0.04357 =
         0.03268   -0.00820    0.00955   -0.01116
C70   1    0.496412    0.471898    0.291440    11.00000    0.03403    0.04693 =
         0.03938   -0.01064    0.00601   -0.02161
C71   1    0.521004    0.395037    0.291665    11.00000    0.03179    0.04578 =
         0.04687   -0.00874    0.00161   -0.00542
AFIX  43
H71   2    0.566628    0.362233    0.323949    11.00000   -1.20000
AFIX   0
C72   1    0.480684    0.364059    0.245728    11.00000    0.04378    0.04389 =
         0.04289   -0.01249    0.00995   -0.01180
C73   1    0.417869    0.413808    0.197172    11.00000    0.04344    0.04823 =
         0.03659   -0.01590    0.01141   -0.01431
AFIX  43
H73   2    0.390164    0.393926    0.165060    11.00000   -1.20000
AFIX   0
C74   1    0.392524    0.493703    0.192879    11.00000    0.03511    0.04119 =
         0.03592   -0.00860    0.01290   -0.01562
C75   1    0.540826    0.500818    0.344011    11.00000    0.04699    0.06021 =
         0.04911   -0.01482   -0.00570   -0.01568
AFIX 137
H75A  2    0.556176    0.551627    0.313004    11.00000   -1.50000
H75B  2    0.588836    0.460920    0.368311    11.00000   -1.50000
H75C  2    0.506443    0.508773    0.385014    11.00000   -1.50000
AFIX   0
C76   1    0.507042    0.278516    0.250540    11.00000    0.06275    0.05378 =
         0.06212   -0.02095    0.01880   -0.02128
AFIX 137
H76A  2    0.473720    0.267384    0.213333    11.00000   -1.50000
H76B  2    0.501584    0.242485    0.303888    11.00000   -1.50000
H76C  2    0.562971    0.270017    0.237528    11.00000   -1.50000
AFIX   0
C77   1    0.328932    0.547885    0.131799    11.00000    0.03599    0.05031 =
         0.04109   -0.01093   -0.00048   -0.01445
AFIX 137
H77A  2    0.281080    0.562560    0.157529    11.00000   -1.50000
H77B  2    0.315833    0.520069    0.097177    11.00000   -1.50000
H77C  2    0.348379    0.596391    0.100824    11.00000   -1.50000
AFIX   0
C78   1    0.252825    0.903472    0.168625    11.00000    0.04971    0.07398 =
         0.08918   -0.05668   -0.01425    0.01335
AFIX 137
H78A  2    0.309829    0.905621    0.167095    11.00000   -1.50000
H78B  2    0.223280    0.951055    0.177363    11.00000   -1.50000
H78C  2    0.233480    0.901921    0.118627    11.00000   -1.50000
AFIX   0
C79   1    0.132703    0.793905    0.241788    11.00000    0.03499    0.09645 =
         0.09042   -0.04554    0.00393    0.00044
AFIX 137
H79A  2    0.128179    0.772865    0.199356    11.00000   -1.50000
H79B  2    0.094715    0.844490    0.230309    11.00000   -1.50000
H79C  2    0.120831    0.755105    0.291372    11.00000   -1.50000
AFIX   0
C80   1    0.242793    0.829496    0.344209    11.00000    0.06286    0.10209 =
         0.08568   -0.05915    0.00711    0.01791
AFIX 137
H80A  2    0.232038    0.782641    0.387104    11.00000   -1.50000
H80B  2    0.202990    0.876681    0.341786    11.00000   -1.50000
H80C  2    0.296218    0.838571    0.353509    11.00000   -1.50000
AFIX   0
PART 1
C50   1    0.275874    0.805243    0.013798    21.00000    0.05529    0.05049 =
         0.05808   -0.01855   -0.02312   -0.00261
AFIX  13
H50   2    0.300850    0.827103    0.049501    21.00000   -1.20000
AFIX   0
C52   1    0.221814    0.875696   -0.046589    21.00000    0.04025
AFIX 137
H52A  2    0.187622    0.855838   -0.075756    21.00000   -1.50000
H52B  2    0.254473    0.909326   -0.083055    21.00000   -1.50000
H52C  2    0.188481    0.907362   -0.019901    21.00000   -1.50000
AFIX   0
PART 2
C50A  1    0.275874    0.805243    0.013798   -21.00000    0.05529    0.05049 =
         0.05808   -0.01855   -0.02312   -0.00261
AFIX  13
H50A  2    0.299405    0.831157    0.046605   -21.00000   -1.20000
AFIX   0
C52A  1    0.243764    0.870578   -0.067526   -21.00000    0.06115
AFIX 137
H52D  2    0.213137    0.847673   -0.096782   -21.00000   -1.50000
H52E  2    0.288828    0.888866   -0.097511   -21.00000   -1.50000
H52F  2    0.209255    0.916030   -0.059114   -21.00000   -1.50000
PART 0
AFIX   0
HKLF 4
REM  S18MDA41 in P-1
REM R1 =  0.0765 for   14075 Fo > 4sig(Fo)  and  0.0930 for all   18310 data
REM    974 parameters refined using      1 restraints
END
;
_cod_data_source_file            c8sc04078h2.cif
_cod_data_source_block           7b
_cod_original_cell_volume        5180.4(2)
_cod_database_code               1550234
loop_
_symmetry_equiv_pos_as_xyz
'x, y, z'
'-x, -y, -z'
loop_
_atom_site_label
_atom_site_type_symbol
_atom_site_fract_x
_atom_site_fract_y
_atom_site_fract_z
_atom_site_U_iso_or_equiv
_atom_site_adp_type
_atom_site_occupancy
_atom_site_calc_flag
_atom_site_disorder_assembly
_atom_site_disorder_group
In1 In 0.07516(2) 0.27801(2) 0.35576(2) 0.02783(12) Uani 1 d . .
In2 In 0.42592(2) 0.71490(3) 0.20396(2) 0.03086(13) Uani 1 d . .
K1 K 0.15555(10) 0.58887(13) 0.29718(11) 0.0567(5) Uani 1 d . .
K2 K 0.34675(11) 0.40134(14) 0.36343(11) 0.0589(5) Uani 1 d . .
Si1 Si -0.01425(10) 0.14626(10) 0.46823(10) 0.0322(4) Uani 1 d . .
Si2 Si 0.02776(12) 0.13950(11) 0.30480(11) 0.0373(4) Uani 1 d . .
Si3 Si 0.25981(13) 0.17981(16) 0.46971(14) 0.0538(5) Uani 1 d . .
Si4 Si 0.47727(14) 0.84976(12) 0.05693(12) 0.0457(5) Uani 1 d . .
Si5 Si 0.51184(11) 0.84941(11) 0.22302(12) 0.0389(4) Uani 1 d . .
Si6 Si 0.23737(13) 0.81172(16) 0.25011(16) 0.0547(6) Uani 1 d . .
O1 O 0.0315(3) 0.1176(3) 0.4004(3) 0.0357(10) Uani 1 d . .
O2 O 0.4697(3) 0.8761(3) 0.1342(3) 0.0464(12) Uani 1 d . .
N1 N -0.0161(3) 0.2468(3) 0.4353(3) 0.0293(10) Uani 1 d . .
N2 N 0.0613(3) 0.2269(3) 0.2691(3) 0.0338(11) Uani 1 d . .
N3 N 0.1018(3) 0.3946(3) 0.3190(3) 0.0334(11) Uani 1 d . .
N4 N 0.1788(3) 0.3954(4) 0.3443(3) 0.0391(13) Uani 1 d . .
N5 N 0.2218(4) 0.3303(4) 0.3895(4) 0.0459(15) Uani 1 d . .
N6 N 0.1920(3) 0.2608(4) 0.4095(4) 0.0394(13) Uani 1 d . .
N7 N 0.4424(3) 0.7617(4) 0.0838(3) 0.0365(12) Uani 1 d . .
N8 N 0.5158(3) 0.7481(3) 0.2607(3) 0.0325(11) Uani 1 d . .
N9 N 0.3993(3) 0.5984(4) 0.2487(3) 0.0366(12) Uani 1 d . .
N10 N 0.3220(4) 0.5964(4) 0.2750(4) 0.0421(14) Uani 1 d . .
N11 N 0.2798(3) 0.6621(4) 0.2742(4) 0.0463(15) Uani 1 d . .
N12 N 0.3081(3) 0.7306(4) 0.2450(4) 0.0437(14) Uani 1 d . .
C1 C -0.0613(4) 0.3004(4) 0.4679(4) 0.0294(12) Uani 1 d . .
C2 C -0.1433(4) 0.3349(4) 0.4385(4) 0.0312(13) Uani 1 d . .
C3 C -0.1871(4) 0.3919(5) 0.4649(4) 0.0402(15) Uani 1 d . .
H3 H -0.2418 0.4119 0.4479 0.048 Uiso 1 calc . .
C4 C -0.1517(4) 0.4204(5) 0.5165(5) 0.0450(17) Uani 1 d . .
H4 H -0.1807 0.4622 0.5316 0.054 Uiso 1 calc . .
C5 C -0.0744(4) 0.3868(5) 0.5447(4) 0.0437(16) Uani 1 d . .
H5 H -0.0509 0.4049 0.581 0.052 Uiso 1 calc . .
C6 C -0.0292(4) 0.3273(4) 0.5222(4) 0.0360(14) Uani 1 d . .
C7 C -0.1834(4) 0.3133(4) 0.3767(4) 0.0386(15) Uani 1 d . .
H7 H -0.1466 0.2676 0.3686 0.046 Uiso 1 calc . .
C8 C -0.2621(4) 0.2863(5) 0.4013(5) 0.0516(19) Uani 1 d . .
H8A H -0.2528 0.2403 0.4505 0.077 Uiso 1 calc . .
H8B H -0.2843 0.2711 0.3603 0.077 Uiso 1 calc . .
H8C H -0.2997 0.3303 0.4091 0.077 Uiso 1 calc . .
C9 C -0.1983(6) 0.3819(5) 0.2983(5) 0.058(2) Uani 1 d . .
H9A H -0.2368 0.4266 0.3037 0.087 Uiso 1 calc . .
H9B H -0.2197 0.3637 0.259 0.087 Uiso 1 calc . .
H9C H -0.148 0.3996 0.2815 0.087 Uiso 1 calc . .
C10 C 0.0560(4) 0.2938(5) 0.5569(4) 0.0402(15) Uani 1 d . .
H10 H 0.0795 0.2515 0.5353 0.048 Uiso 1 calc . .
C11 C 0.0568(5) 0.2543(6) 0.6470(4) 0.0497(19) Uani 1 d . .
H11A H 0.0336 0.2946 0.6696 0.075 Uiso 1 calc . .
H11B H 0.1119 0.2315 0.6685 0.075 Uiso 1 calc . .
H11C H 0.0254 0.2116 0.6601 0.075 Uiso 1 calc . .
C12 C 0.1070(4) 0.3575(5) 0.5346(5) 0.0480(18) Uani 1 d . .
H12A H 0.1097 0.3782 0.4775 0.072 Uiso 1 calc . .
H12B H 0.1609 0.3342 0.5593 0.072 Uiso 1 calc . .
H12C H 0.0834 0.4012 0.5526 0.072 Uiso 1 calc . .
C13 C -0.1131(5) 0.1156(5) 0.4844(5) 0.0439(16) Uani 1 d . .
H13A H -0.144 0.1336 0.4341 0.066 Uiso 1 calc . .
H13B H -0.142 0.14 0.5196 0.066 Uiso 1 calc . .
H13C H -0.1055 0.0572 0.5081 0.066 Uiso 1 calc . .
C14 C 0.0472(5) 0.0889(5) 0.5625(4) 0.0465(17) Uani 1 d . .
H14A H 0.0429 0.0323 0.579 0.07 Uiso 1 calc . .
H14B H 0.0276 0.1105 0.6031 0.07 Uiso 1 calc . .
H14C H 0.1031 0.0938 0.5546 0.07 Uiso 1 calc . .
C15 C -0.0770(6) 0.1444(5) 0.2710(5) 0.054(2) Uani 1 d . .
H15A H -0.095 0.0949 0.3015 0.08 Uiso 1 calc . .
H15B H -0.079 0.1508 0.2152 0.08 Uiso 1 calc . .
H15C H -0.112 0.1901 0.2785 0.08 Uiso 1 calc . .
C16 C 0.0906(6) 0.0536(5) 0.2863(6) 0.060(2) Uani 1 d . .
H16A H 0.1464 0.0497 0.3023 0.09 Uiso 1 calc . .
H16B H 0.0861 0.0617 0.2302 0.09 Uiso 1 calc . .
H16C H 0.0726 0.004 0.3166 0.09 Uiso 1 calc . .
C17 C 0.0832(4) 0.2627(4) 0.1899(4) 0.0346(14) Uani 1 d . .
C18 C 0.0273(4) 0.3217(5) 0.1329(4) 0.0415(16) Uani 1 d . .
C19 C 0.0507(5) 0.3555(6) 0.0568(4) 0.054(2) Uani 1 d . .
H19 H 0.0139 0.396 0.0186 0.065 Uiso 1 calc . .
C20 C 0.1257(6) 0.3315(6) 0.0358(5) 0.058(2) Uani 1 d . .
H20 H 0.1393 0.3528 -0.0171 0.07 Uiso 1 calc . .
C21 C 0.1817(5) 0.2758(5) 0.0923(5) 0.0500(19) Uani 1 d . .
H21 H 0.2348 0.2625 0.0785 0.06 Uiso 1 calc . .
C22 C 0.1613(4) 0.2396(4) 0.1685(4) 0.0404(16) Uani 1 d . .
C23 C -0.0574(4) 0.3520(5) 0.1499(4) 0.0426(16) Uani 1 d . .
H23 H -0.0632 0.3269 0.2075 0.051 Uiso 1 calc . .
C24 C -0.1194(5) 0.3272(6) 0.1060(5) 0.054(2) Uani 1 d . .
H24A H -0.1168 0.3534 0.0493 0.08 Uiso 1 calc . .
H24B H -0.173 0.3434 0.1215 0.08 Uiso 1 calc . .
H24C H -0.1077 0.2689 0.1193 0.08 Uiso 1 calc . .
C25 C -0.0751(5) 0.4423(5) 0.1291(5) 0.0487(18) Uani 1 d . .
H25A H -0.0373 0.4577 0.1589 0.073 Uiso 1 calc . .
H25B H -0.1296 0.4591 0.1421 0.073 Uiso 1 calc . .
H25C H -0.0698 0.4683 0.0728 0.073 Uiso 1 calc . .
C26 C 0.2264(5) 0.1820(5) 0.2272(5) 0.0497(18) Uani 1 d . .
H26 H 0.2017 0.1572 0.2776 0.06 Uiso 1 calc . .
C27 C 0.2887(5) 0.2257(6) 0.2427(6) 0.057(2) Uani 1 d . .
H27A H 0.3108 0.2535 0.1931 0.086 Uiso 1 calc . .
H27B H 0.3316 0.187 0.2788 0.086 Uiso 1 calc . .
H27C H 0.2641 0.2647 0.2662 0.086 Uiso 1 calc . .
C28 C 0.2675(7) 0.1138(6) 0.1981(7) 0.072(3) Uani 1 d . .
H28A H 0.2274 0.0849 0.1889 0.107 Uiso 1 calc . .
H28B H 0.308 0.0767 0.2381 0.107 Uiso 1 calc . .
H28C H 0.2929 0.1371 0.1492 0.107 Uiso 1 calc . .
C29 C 0.0717(4) 0.4708(4) 0.2606(4) 0.0313(13) Uani 1 d . .
C30 C 0.0060(4) 0.5213(4) 0.2750(4) 0.0338(13) Uani 1 d . .
C31 C -0.0179(4) 0.5983(4) 0.2208(4) 0.0397(15) Uani 1 d . .
H31 H -0.0636 0.6318 0.23 0.048 Uiso 1 calc . .
C32 C 0.0232(5) 0.6279(4) 0.1535(4) 0.0419(16) Uani 1 d . .
C33 C 0.0856(4) 0.5752(4) 0.1389(4) 0.0391(15) Uani 1 d . .
H33 H 0.1124 0.5933 0.0919 0.047 Uiso 1 calc . .
C34 C 0.1105(4) 0.4970(4) 0.1899(4) 0.0343(14) Uani 1 d . .
C35 C -0.0392(5) 0.4930(5) 0.3483(5) 0.0483(18) Uani 1 d . .
H35A H -0.0818 0.5367 0.3494 0.072 Uiso 1 calc . .
H35B H -0.0025 0.4768 0.3947 0.072 Uiso 1 calc . .
H35C H -0.0624 0.4473 0.3482 0.072 Uiso 1 calc . .
C36 C -0.0016(5) 0.7124(5) 0.0989(5) 0.0531(19) Uani 1 d . .
H36A H 0.0435 0.7296 0.0683 0.08 Uiso 1 calc . .
H36B H -0.0184 0.7472 0.1293 0.08 Uiso 1 calc . .
H36C H -0.0462 0.7158 0.0633 0.08 Uiso 1 calc . .
C37 C 0.1745(4) 0.4407(4) 0.1685(4) 0.0404(15) Uani 1 d . .
H37A H 0.1865 0.4653 0.1136 0.061 Uiso 1 calc . .
H37B H 0.156 0.3906 0.1753 0.061 Uiso 1 calc . .
H37C H 0.2228 0.4292 0.2025 0.061 Uiso 1 calc . .
C38 C 0.2434(6) 0.0900(5) 0.4488(6) 0.062(2) Uani 1 d . .
H38A H 0.1863 0.0886 0.4486 0.093 Uiso 1 calc . .
H38B H 0.2723 0.0415 0.4894 0.093 Uiso 1 calc . .
H38C H 0.263 0.0924 0.3974 0.093 Uiso 1 calc . .
C39 C 0.2511(6) 0.1631(7) 0.5771(5) 0.067(3) Uani 1 d . .
H39A H 0.2609 0.2103 0.5876 0.1 Uiso 1 calc . .
H39B H 0.2904 0.1161 0.6079 0.1 Uiso 1 calc . .
H39C H 0.1973 0.1541 0.5917 0.1 Uiso 1 calc . .
C40 C 0.3653(5) 0.1962(8) 0.4501(7) 0.079(3) Uani 1 d . .
H40A H 0.3723 0.2122 0.3936 0.119 Uiso 1 calc . .
H40B H 0.4029 0.1464 0.4777 0.119 Uiso 1 calc . .
H40C H 0.3755 0.2385 0.4689 0.119 Uiso 1 calc . .
C41 C 0.4214(4) 0.7268(4) 0.0288(4) 0.0344(14) Uani 1 d . .
C42 C 0.4781(4) 0.6686(5) 0.0109(4) 0.0410(16) Uani 1 d . .
C43 C 0.4558(5) 0.6344(6) -0.0423(5) 0.053(2) Uani 1 d . .
H43 H 0.4932 0.5946 -0.0534 0.064 Uiso 1 calc . .
C44 C 0.3796(5) 0.6581(6) -0.0790(5) 0.054(2) Uani 1 d . .
H44 H 0.3656 0.6353 -0.1158 0.064 Uiso 1 calc . .
C45 C 0.3250(5) 0.7139(5) -0.0622(4) 0.0482(18) Uani 1 d . .
H45 H 0.2733 0.7297 -0.0881 0.058 Uiso 1 calc . .
C46 C 0.3427(5) 0.7492(4) -0.0074(4) 0.0422(16) Uani 1 d . .
C47 C 0.5629(4) 0.6390(5) 0.0482(5) 0.0425(16) Uani 1 d . .
H47 H 0.5688 0.6669 0.0861 0.051 Uiso 1 calc . .
C48 C 0.5789(5) 0.5512(5) 0.0932(5) 0.0494(18) Uani 1 d . .
H48A H 0.5396 0.5387 0.1329 0.074 Uiso 1 calc . .
H48B H 0.6327 0.5352 0.119 0.074 Uiso 1 calc . .
H48C H 0.5751 0.5221 0.0572 0.074 Uiso 1 calc . .
C49 C 0.6247(5) 0.6603(6) -0.0127(6) 0.062(2) Uani 1 d . .
H49A H 0.6762 0.6555 0.0138 0.093 Uiso 1 calc . .
H49B H 0.6074 0.7154 -0.0489 0.093 Uiso 1 calc . .
H49C H 0.6303 0.6236 -0.0422 0.093 Uiso 1 calc . .
C51 C 0.2154(5) 0.7584(6) 0.0603(6) 0.058(2) Uani 1 d . .
H51A H 0.1955 0.729 0.0305 0.088 Uiso 1 calc A 1
H51B H 0.1708 0.7956 0.07 0.088 Uiso 1 calc A 1
H51C H 0.241 0.7205 0.1105 0.088 Uiso 1 calc A 1
C53 C 0.5837(6) 0.8416(6) 0.0300(5) 0.060(2) Uani 1 d . .
H53A H 0.6035 0.8891 0.03 0.09 Uiso 1 calc . .
H53B H 0.5871 0.8377 -0.0224 0.09 Uiso 1 calc . .
H53C H 0.6161 0.7936 0.0682 0.09 Uiso 1 calc . .
C54 C 0.4190(8) 0.9314(5) -0.0263(6) 0.079(4) Uani 1 d . .
H54A H 0.364 0.9439 -0.0119 0.118 Uiso 1 calc . .
H54B H 0.4188 0.9145 -0.072 0.118 Uiso 1 calc . .
H54C H 0.4432 0.9791 -0.0391 0.118 Uiso 1 calc . .
C55 C 0.6108(5) 0.8810(4) 0.2194(5) 0.0453(17) Uani 1 d . .
H55A H 0.6442 0.8604 0.1842 0.068 Uiso 1 calc . .
H55B H 0.6372 0.8596 0.2722 0.068 Uiso 1 calc . .
H55C H 0.6028 0.9396 0.2001 0.068 Uiso 1 calc . .
C56 C 0.4471(6) 0.9071(6) 0.2748(6) 0.065(3) Uani 1 d . .
H56A H 0.45 0.964 0.2513 0.097 Uiso 1 calc . .
H56B H 0.4653 0.8874 0.3304 0.097 Uiso 1 calc . .
H56C H 0.3918 0.9004 0.27 0.097 Uiso 1 calc . .
C57 C 0.5626(4) 0.6945(4) 0.3290(4) 0.0347(14) Uani 1 d . .
C58 C 0.5290(4) 0.6696(5) 0.4025(4) 0.0430(16) Uani 1 d . .
C59 C 0.5741(4) 0.6116(5) 0.4670(4) 0.0472(18) Uani 1 d . .
H59 H 0.5505 0.5943 0.516 0.057 Uiso 1 calc . .
C60 C 0.6514(5) 0.5790(5) 0.4612(4) 0.0507(19) Uani 1 d . .
H60 H 0.6806 0.5382 0.5054 0.061 Uiso 1 calc . .
C61 C 0.6865(4) 0.6055(5) 0.3912(4) 0.0401(15) Uani 1 d . .
H61 H 0.7411 0.5847 0.3879 0.048 Uiso 1 calc . .
C62 C 0.6431(4) 0.6628(4) 0.3244(4) 0.0334(13) Uani 1 d . .
C63 C 0.4435(4) 0.7030(6) 0.4141(5) 0.0491(19) Uani 1 d . .
H63 H 0.4203 0.7439 0.3628 0.059 Uiso 1 calc . .
C64 C 0.4414(5) 0.7455(7) 0.4745(5) 0.060(2) Uani 1 d . .
H64A H 0.4602 0.706 0.5264 0.091 Uiso 1 calc . .
H64B H 0.3866 0.7723 0.4765 0.091 Uiso 1 calc . .
H64C H 0.4762 0.7853 0.4591 0.091 Uiso 1 calc . .
C65 C 0.3921(5) 0.6384(6) 0.4377(5) 0.057(2) Uani 1 d . .
H65A H 0.3904 0.6156 0.3962 0.085 Uiso 1 calc . .
H65B H 0.3378 0.6622 0.4454 0.085 Uiso 1 calc . .
H65C H 0.415 0.596 0.4867 0.085 Uiso 1 calc . .
C66 C 0.6850(4) 0.6835(4) 0.2480(4) 0.0373(14) Uani 1 d . .
H66 H 0.6488 0.729 0.2079 0.045 Uiso 1 calc . .
C67 C 0.7632(5) 0.7115(6) 0.2559(5) 0.055(2) Uani 1 d . .
H67A H 0.8013 0.667 0.2923 0.083 Uiso 1 calc . .
H67B H 0.7527 0.7558 0.276 0.083 Uiso 1 calc . .
H67C H 0.7857 0.7296 0.2044 0.083 Uiso 1 calc . .
C68 C 0.7002(6) 0.6144(6) 0.2181(5) 0.060(2) Uani 1 d . .
H68A H 0.7421 0.5721 0.2519 0.089 Uiso 1 calc . .
H68B H 0.7173 0.6329 0.1643 0.089 Uiso 1 calc . .
H68C H 0.6511 0.5932 0.2188 0.089 Uiso 1 calc . .
C69 C 0.4306(4) 0.5214(4) 0.2438(4) 0.0365(14) Uani 1 d . .
C70 C 0.4964(4) 0.4719(4) 0.2914(4) 0.0395(15) Uani 1 d . .
C71 C 0.5210(4) 0.3950(5) 0.2917(5) 0.0437(16) Uani 1 d . .
H71 H 0.5666 0.3622 0.3239 0.052 Uiso 1 calc . .
C72 C 0.4807(5) 0.3641(5) 0.2457(4) 0.0438(16) Uani 1 d . .
C73 C 0.4179(4) 0.4138(5) 0.1972(4) 0.0417(16) Uani 1 d . .
H73 H 0.3902 0.3939 0.1651 0.05 Uiso 1 calc . .
C74 C 0.3925(4) 0.4937(4) 0.1929(4) 0.0376(14) Uani 1 d . .
C75 C 0.5408(5) 0.5008(5) 0.3440(5) 0.0525(19) Uani 1 d . .
H75A H 0.5562 0.5516 0.313 0.079 Uiso 1 calc . .
H75B H 0.5888 0.4609 0.3683 0.079 Uiso 1 calc . .
H75C H 0.5064 0.5088 0.385 0.079 Uiso 1 calc . .
C76 C 0.5070(6) 0.2785(5) 0.2505(6) 0.058(2) Uani 1 d . .
H76A H 0.4737 0.2674 0.2133 0.087 Uiso 1 calc . .
H76B H 0.5016 0.2425 0.3039 0.087 Uiso 1 calc . .
H76C H 0.563 0.27 0.2375 0.087 Uiso 1 calc . .
C77 C 0.3289(4) 0.5479(5) 0.1318(4) 0.0430(16) Uani 1 d . .
H77A H 0.2811 0.5626 0.1575 0.064 Uiso 1 calc . .
H77B H 0.3158 0.5201 0.0972 0.064 Uiso 1 calc . .
H77C H 0.3484 0.5964 0.1008 0.064 Uiso 1 calc . .
C78 C 0.2528(5) 0.9035(6) 0.1686(6) 0.067(3) Uani 1 d . .
H78A H 0.3098 0.9056 0.1671 0.1 Uiso 1 calc . .
H78B H 0.2233 0.9511 0.1774 0.1 Uiso 1 calc . .
H78C H 0.2335 0.9019 0.1186 0.1 Uiso 1 calc . .
C79 C 0.1327(5) 0.7939(7) 0.2418(7) 0.072(3) Uani 1 d . .
H79A H 0.1282 0.7729 0.1994 0.108 Uiso 1 calc . .
H79B H 0.0947 0.8445 0.2303 0.108 Uiso 1 calc . .
H79C H 0.1208 0.7551 0.2914 0.108 Uiso 1 calc . .
C80 C 0.2428(6) 0.8295(8) 0.3442(7) 0.081(3) Uani 1 d . .
H80A H 0.232 0.7826 0.3871 0.121 Uiso 1 calc . .
H80B H 0.203 0.8767 0.3418 0.121 Uiso 1 calc . .
H80C H 0.2962 0.8386 0.3535 0.121 Uiso 1 calc . .
C50 C 0.2759(5) 0.8052(5) 0.0138(5) 0.056(2) Uani 0.41(7) d B 1
H50 H 0.3009 0.8271 0.0495 0.067 Uiso 0.41(7) calc B 1
C52 C 0.2218(16) 0.8757(10) -0.0466(18) 0.040(8) Uiso 0.41(7) d B 1
H52A H 0.1876 0.8558 -0.0758 0.06 Uiso 0.41(7) calc B 1
H52B H 0.2545 0.9093 -0.0831 0.06 Uiso 0.41(7) calc B 1
H52C H 0.1885 0.9074 -0.0199 0.06 Uiso 0.41(7) calc B 1
C50A C 0.2759(5) 0.8052(5) 0.0138(5) 0.056(2) Uani 0.59(7) d B 2
H50A H 0.2994 0.8312 0.0466 0.067 Uiso 0.59(7) calc B 2
C52A C 0.2438(18) 0.8706(10) -0.0675(14) 0.061(6) Uiso 0.59(7) d B 2
H52D H 0.2131 0.8477 -0.0968 0.092 Uiso 0.59(7) calc B 2
H52E H 0.2888 0.8889 -0.0975 0.092 Uiso 0.59(7) calc B 2
H52F H 0.2093 0.916 -0.0591 0.092 Uiso 0.59(7) calc B 2
loop_
_atom_site_aniso_label
_atom_site_aniso_U_11
_atom_site_aniso_U_22
_atom_site_aniso_U_33
_atom_site_aniso_U_23
_atom_site_aniso_U_13
_atom_site_aniso_U_12
In1 0.0230(2) 0.0331(2) 0.0274(2) -0.01093(16) 0.00513(14) -0.00463(15)
In2 0.0249(2) 0.0378(2) 0.0320(2) -0.01594(18) 0.00018(15) -0.00371(16)
K1 0.0427(9) 0.0874(14) 0.0550(10) -0.0360(10) 0.0121(7) -0.0280(9)
K2 0.0420(9) 0.0971(15) 0.0494(9) -0.0313(10) 0.0139(7) -0.0314(9)
Si1 0.0343(9) 0.0287(9) 0.0301(8) -0.0067(7) 0.0072(7) -0.0045(7)
Si2 0.0483(10) 0.0302(9) 0.0354(9) -0.0123(7) 0.0131(8) -0.0108(8)
Si3 0.0320(10) 0.0706(15) 0.0475(11) -0.0147(11) -0.0052(8) 0.0076(10)
Si4 0.0618(13) 0.0350(10) 0.0390(10) -0.0060(8) -0.0090(9) -0.0195(9)
Si5 0.0381(9) 0.0364(10) 0.0451(10) -0.0205(8) -0.0084(8) -0.0015(7)
Si6 0.0323(10) 0.0692(15) 0.0685(14) -0.0386(12) 0.0007(9) 0.0050(10)
O1 0.043(3) 0.024(2) 0.035(2) -0.0063(18) 0.0082(19) -0.0021(18)
O2 0.049(3) 0.036(3) 0.053(3) -0.014(2) -0.017(2) -0.005(2)
N1 0.025(2) 0.034(3) 0.030(2) -0.013(2) 0.0119(19) -0.004(2)
N2 0.038(3) 0.035(3) 0.027(3) -0.007(2) 0.011(2) -0.010(2)
N3 0.029(3) 0.038(3) 0.039(3) -0.017(2) 0.006(2) -0.012(2)
N4 0.029(3) 0.058(4) 0.030(3) -0.012(3) 0.003(2) -0.013(3)
N5 0.034(3) 0.069(4) 0.037(3) -0.019(3) 0.010(2) -0.014(3)
N6 0.018(2) 0.054(4) 0.043(3) -0.016(3) 0.000(2) -0.001(2)
N7 0.040(3) 0.040(3) 0.031(3) -0.013(2) -0.002(2) -0.011(2)
N8 0.023(2) 0.044(3) 0.035(3) -0.020(2) 0.000(2) -0.004(2)
N9 0.029(3) 0.047(3) 0.042(3) -0.019(3) 0.012(2) -0.019(2)
N10 0.033(3) 0.056(4) 0.047(3) -0.028(3) 0.011(2) -0.013(3)
N11 0.024(3) 0.070(4) 0.059(4) -0.039(4) 0.009(3) -0.013(3)
N12 0.023(3) 0.064(4) 0.050(3) -0.029(3) 0.004(2) -0.001(3)
C1 0.028(3) 0.034(3) 0.031(3) -0.014(3) 0.009(2) -0.013(2)
C2 0.026(3) 0.032(3) 0.036(3) -0.012(3) 0.009(2) -0.007(2)
C3 0.031(3) 0.052(4) 0.038(3) -0.016(3) 0.010(3) -0.006(3)
C4 0.040(4) 0.050(4) 0.052(4) -0.029(4) 0.017(3) -0.004(3)
C5 0.043(4) 0.057(5) 0.042(4) -0.031(4) 0.013(3) -0.010(3)
C6 0.037(3) 0.044(4) 0.033(3) -0.018(3) 0.012(3) -0.013(3)
C7 0.034(3) 0.042(4) 0.039(4) -0.017(3) 0.001(3) 0.001(3)
C8 0.034(4) 0.066(5) 0.059(5) -0.026(4) -0.002(3) -0.011(4)
C9 0.075(6) 0.057(5) 0.038(4) -0.016(4) -0.001(4) -0.006(4)
C10 0.033(3) 0.059(5) 0.034(3) -0.021(3) 0.005(3) -0.010(3)
C11 0.038(4) 0.079(6) 0.033(4) -0.021(4) 0.003(3) -0.012(4)
C12 0.037(4) 0.070(5) 0.046(4) -0.028(4) 0.009(3) -0.015(4)
C13 0.047(4) 0.043(4) 0.048(4) -0.018(3) 0.020(3) -0.020(3)
C14 0.051(4) 0.041(4) 0.036(4) -0.003(3) 0.001(3) 0.000(3)
C15 0.074(6) 0.045(4) 0.045(4) -0.010(3) 0.006(4) -0.034(4)
C16 0.090(7) 0.039(4) 0.066(5) -0.029(4) 0.040(5) -0.025(4)
C17 0.048(4) 0.035(3) 0.031(3) -0.019(3) 0.013(3) -0.018(3)
C18 0.044(4) 0.053(4) 0.036(4) -0.019(3) 0.008(3) -0.026(3)
C19 0.058(5) 0.074(6) 0.031(4) -0.008(4) 0.007(3) -0.032(4)
C20 0.067(5) 0.082(6) 0.037(4) -0.025(4) 0.022(4) -0.038(5)
C21 0.046(4) 0.061(5) 0.050(4) -0.021(4) 0.036(4) -0.025(4)
C22 0.046(4) 0.046(4) 0.043(4) -0.024(3) 0.022(3) -0.025(3)
C23 0.041(4) 0.056(4) 0.029(3) -0.007(3) -0.002(3) -0.020(3)
C24 0.046(4) 0.067(5) 0.048(4) -0.012(4) -0.007(3) -0.026(4)
C25 0.045(4) 0.050(4) 0.045(4) -0.004(3) 0.002(3) -0.018(3)
C26 0.050(4) 0.041(4) 0.057(5) -0.020(4) 0.023(4) -0.003(3)
C27 0.041(4) 0.065(6) 0.062(5) -0.019(4) 0.014(4) -0.007(4)
C28 0.071(6) 0.057(6) 0.091(7) -0.035(5) 0.029(6) -0.005(5)
C29 0.033(3) 0.024(3) 0.037(3) -0.010(3) -0.001(3) -0.009(2)
C30 0.028(3) 0.037(3) 0.041(3) -0.017(3) 0.008(3) -0.011(3)
C31 0.033(3) 0.042(4) 0.047(4) -0.018(3) 0.001(3) -0.008(3)
C32 0.048(4) 0.037(4) 0.042(4) -0.014(3) 0.000(3) -0.011(3)
C33 0.043(4) 0.046(4) 0.031(3) -0.014(3) 0.003(3) -0.014(3)
C34 0.033(3) 0.041(4) 0.039(3) -0.024(3) 0.010(3) -0.013(3)
C35 0.048(4) 0.051(4) 0.051(4) -0.022(4) 0.022(3) -0.014(3)
C36 0.055(5) 0.048(5) 0.052(5) -0.013(4) -0.002(4) -0.009(4)
C37 0.043(4) 0.039(4) 0.040(4) -0.012(3) 0.013(3) -0.013(3)
C38 0.058(5) 0.051(5) 0.059(5) -0.010(4) -0.002(4) 0.018(4)
C39 0.049(5) 0.095(7) 0.042(4) -0.017(5) -0.015(4) 0.007(5)
C40 0.031(4) 0.112(9) 0.083(7) -0.027(7) -0.008(4) 0.005(5)
C41 0.042(4) 0.041(4) 0.024(3) -0.012(3) 0.001(2) -0.014(3)
C42 0.044(4) 0.061(5) 0.028(3) -0.019(3) 0.008(3) -0.026(3)
C43 0.057(5) 0.073(6) 0.052(4) -0.041(4) 0.020(4) -0.032(4)
C44 0.057(5) 0.083(6) 0.042(4) -0.034(4) 0.011(3) -0.041(5)
C45 0.052(4) 0.061(5) 0.037(4) -0.015(4) -0.004(3) -0.026(4)
C46 0.048(4) 0.038(4) 0.042(4) -0.012(3) -0.009(3) -0.015(3)
C47 0.040(4) 0.052(4) 0.048(4) -0.030(4) 0.017(3) -0.018(3)
C48 0.045(4) 0.054(5) 0.058(5) -0.028(4) 0.010(3) -0.015(4)
C49 0.056(5) 0.092(7) 0.060(5) -0.041(5) 0.027(4) -0.040(5)
C51 0.037(4) 0.075(6) 0.072(6) -0.041(5) -0.008(4) -0.001(4)
C53 0.074(6) 0.063(5) 0.058(5) -0.026(4) 0.015(4) -0.041(5)
C54 0.127(10) 0.040(5) 0.061(6) 0.005(4) -0.043(6) -0.038(5)
C55 0.051(4) 0.035(4) 0.052(4) -0.016(3) -0.008(3) -0.014(3)
C56 0.059(5) 0.063(6) 0.089(7) -0.056(5) -0.008(5) 0.004(4)
C57 0.032(3) 0.042(4) 0.035(3) -0.017(3) 0.002(3) -0.013(3)
C58 0.032(3) 0.062(5) 0.037(4) -0.020(3) 0.000(3) -0.008(3)
C59 0.040(4) 0.076(6) 0.025(3) -0.013(3) 0.006(3) -0.018(4)
C60 0.045(4) 0.066(5) 0.035(4) -0.011(4) -0.010(3) -0.007(4)
C61 0.028(3) 0.049(4) 0.043(4) -0.015(3) 0.004(3) -0.008(3)
C62 0.028(3) 0.030(3) 0.041(3) -0.011(3) -0.002(3) -0.004(2)
C63 0.024(3) 0.083(6) 0.049(4) -0.034(4) 0.004(3) -0.009(3)
C64 0.040(4) 0.103(8) 0.055(5) -0.047(5) 0.005(4) -0.014(4)
C65 0.034(4) 0.096(7) 0.046(4) -0.028(4) 0.007(3) -0.018(4)
C66 0.033(3) 0.040(4) 0.038(3) -0.014(3) 0.005(3) -0.005(3)
C67 0.032(4) 0.067(5) 0.054(5) -0.007(4) 0.008(3) -0.010(4)
C68 0.074(6) 0.058(5) 0.046(4) -0.020(4) 0.012(4) -0.007(4)
C69 0.031(3) 0.044(4) 0.033(3) -0.008(3) 0.010(3) -0.011(3)
C70 0.034(3) 0.047(4) 0.039(3) -0.011(3) 0.006(3) -0.022(3)
C71 0.032(3) 0.046(4) 0.047(4) -0.009(3) 0.002(3) -0.005(3)
C72 0.044(4) 0.044(4) 0.043(4) -0.012(3) 0.010(3) -0.012(3)
C73 0.043(4) 0.048(4) 0.037(3) -0.016(3) 0.011(3) -0.014(3)
C74 0.035(3) 0.041(4) 0.036(3) -0.009(3) 0.013(3) -0.016(3)
C75 0.047(4) 0.060(5) 0.049(4) -0.015(4) -0.006(3) -0.016(4)
C76 0.063(5) 0.054(5) 0.062(5) -0.021(4) 0.019(4) -0.021(4)
C77 0.036(4) 0.050(4) 0.041(4) -0.011(3) 0.000(3) -0.014(3)
C78 0.050(5) 0.074(6) 0.089(7) -0.057(6) -0.014(5) 0.013(4)
C79 0.035(4) 0.096(8) 0.090(7) -0.046(6) 0.004(4) 0.000(5)
C80 0.063(6) 0.102(9) 0.086(8) -0.059(7) 0.007(5) 0.018(6)
C50 0.055(5) 0.050(5) 0.058(5) -0.019(4) -0.023(4) -0.003(4)
C50A 0.055(5) 0.050(5) 0.058(5) -0.019(4) -0.023(4) -0.003(4)
loop_
_atom_type_symbol
_atom_type_description
_atom_type_scat_dispersion_real
_atom_type_scat_dispersion_imag
_atom_type_scat_source
C C 0.0181 0.0091 'International Tables Vol C Tables 4.2.6.8 and 6.1.1.4'
H H 0 0 'International Tables Vol C Tables 4.2.6.8 and 6.1.1.4'
N N 0.0311 0.018 'International Tables Vol C Tables 4.2.6.8 and 6.1.1.4'
O O 0.0492 0.0322 'International Tables Vol C Tables 4.2.6.8 and 6.1.1.4'
Si Si 0.2541 0.3302 'International Tables Vol C Tables 4.2.6.8 and 6.1.1.4'
K K 0.3868 1.0657 'International Tables Vol C Tables 4.2.6.8 and 6.1.1.4'
In In 0.0822 5.0449 'International Tables Vol C Tables 4.2.6.8 and 6.1.1.4'
loop_
_exptl_crystal_face_index_h
_exptl_crystal_face_index_k
_exptl_crystal_face_index_l
_exptl_crystal_face_perp_dist
-8 -9 0 0.0559
-9 -6 3 0.0543
-6 -9 3 0.0458
-7 -5 -10 0.0749
1 -10 1 0.0312
3 -7 5 0.0391
4 -10 -1 0.0349
8 -5 1 0.036
10 4 -3 0.0637
-3 -11 -7 0.047
-3 -9 3 0.0433
1 1 -11 0.0838
0 -11 -2 0.0367
-6 -10 -6 0.0523
-9 -3 -7 0.0741
-2 11 1 0.0316
7 9 7 0.0519
3 11 -1 0.0365
7 -4 5 0.0388
-3 -12 -4 0.042
-8 4 7 0.0632
8 -4 -7 0.0512
4 12 4 0.0439
5 11 3 0.0447
-1 -12 -6 0.0447
-5 -11 -1 0.0409
loop_
_geom_angle_atom_site_label_1
_geom_angle_atom_site_label_2
_geom_angle_atom_site_label_3
_geom_angle
_geom_angle_site_symmetry_1
_geom_angle_site_symmetry_3
N3 In1 N2 118.1(2) . .
N3 In1 N1 120.7(2) . .
N2 In1 N1 106.1(2) . .
N3 In1 N6 76.0(2) . .
N2 In1 N6 118.9(2) . .
N1 In1 N6 115.4(2) . .
N7 In2 N9 117.4(2) . .
N7 In2 N8 105.8(2) . .
N9 In2 N8 121.1(2) . .
N7 In2 N12 119.6(2) . .
N9 In2 N12 74.9(2) . .
N8 In2 N12 116.3(2) . .
N11 K1 N10 26.10(19) . .
N11 K1 C29 147.1(2) . .
N10 K1 C29 124.49(19) . .
N11 K1 C30 164.5(2) . .
N10 K1 C30 150.26(18) . .
C29 K1 C30 26.36(18) . .
N11 K1 C34 122.68(19) . .
N10 K1 C34 105.14(17) . .
C29 K1 C34 26.44(17) . .
C30 K1 C34 45.89(17) . .
N11 K1 C33 113.0(2) . .
N10 K1 C33 105.92(18) . .
C29 K1 C33 45.21(18) . .
C30 K1 C33 51.96(18) . .
C34 K1 C33 25.16(19) . .
N11 K1 C31 142.2(2) . .
N10 K1 C31 148.10(19) . .
C29 K1 C31 45.16(18) . .
C30 K1 C31 25.31(19) . .
C34 K1 C31 51.80(18) . .
C33 K1 C31 43.25(19) . .
N11 K1 N4 121.33(19) . .
N10 K1 N4 95.65(17) . .
C29 K1 N4 42.46(16) . .
C30 K1 N4 63.21(16) . .
C34 K1 N4 53.60(17) . .
C33 K1 N4 78.76(17) . .
C31 K1 N4 86.65(17) . .
N11 K1 C32 120.1(2) . .
N10 K1 C32 123.6(2) . .
C29 K1 C32 53.06(18) . .
C30 K1 C32 44.98(18) . .
C34 K1 C32 44.69(19) . .
C33 K1 C32 24.67(19) . .
C31 K1 C32 24.86(19) . .
N4 K1 C32 94.30(16) . .
N11 K1 C5 106.03(19) . 2_566
N10 K1 C5 119.56(18) . 2_566
C29 K1 C5 105.59(19) . 2_566
C30 K1 C5 86.51(18) . 2_566
C34 K1 C5 131.27(18) . 2_566
C33 K1 C5 134.14(19) . 2_566
C31 K1 C5 90.92(19) . 2_566
N4 K1 C5 101.06(18) . 2_566
C32 K1 C5 112.5(2) . 2_566
N11 K1 C4 91.62(19) . 2_566
N10 K1 C4 98.55(18) . 2_566
C29 K1 C4 114.70(19) . 2_566
C30 K1 C4 103.12(19) . 2_566
C34 K1 C4 140.45(19) . 2_566
C33 K1 C4 154.85(19) . 2_566
C31 K1 C4 113.10(19) . 2_566
N4 K1 C4 93.37(18) . 2_566
C32 K1 C4 136.0(2) . 2_566
C5 K1 C4 23.77(19) 2_566 2_566
N11 K1 K2 77.09(16) . .
N10 K1 K2 52.58(14) . .
C29 K1 K2 84.03(14) . .
C30 K1 K2 107.67(14) . .
C34 K1 K2 81.78(14) . .
C33 K1 K2 101.88(15) . .
C31 K1 K2 129.06(14) . .
N4 K1 K2 44.76(10) . .
C32 K1 K2 125.76(14) . .
C5 K1 K2 109.69(16) 2_566 .
C4 K1 K2 88.32(14) 2_566 .
N5 K2 N4 26.0(2) . .
N5 K2 C69 146.0(2) . .
N4 K2 C69 123.16(19) . .
N5 K2 C70 164.2(2) . .
N4 K2 C70 148.47(19) . .
C69 K2 C70 25.89(19) . .
N5 K2 C74 122.15(19) . .
N4 K2 C74 104.23(18) . .
C69 K2 C74 26.13(18) . .
C70 K2 C74 45.09(18) . .
N5 K2 C73 112.70(19) . .
N4 K2 C73 105.30(18) . .
C69 K2 C73 45.43(19) . .
C70 K2 C73 51.57(18) . .
C74 K2 C73 25.63(19) . .
N5 K2 C71 143.4(2) . .
N4 K2 C71 147.65(19) . .
C69 K2 C71 44.69(19) . .
C70 K2 C71 24.9(2) . .
C74 K2 C71 51.32(19) . .
C73 K2 C71 43.01(19) . .
N5 K2 C72 120.8(2) . .
N4 K2 C72 123.44(19) . .
C69 K2 C72 52.75(19) . .
C70 K2 C72 44.49(19) . .
C74 K2 C72 44.48(19) . .
C73 K2 C72 24.3(2) . .
C71 K2 C72 24.81(19) . .
N5 K2 N10 120.1(2) . .
N4 K2 N10 94.51(17) . .
C69 K2 N10 42.03(17) . .
C70 K2 N10 62.65(18) . .
C74 K2 N10 52.93(17) . .
C73 K2 N10 78.55(18) . .
C71 K2 N10 85.80(17) . .
C72 K2 N10 93.52(18) . .
N5 K2 C59 108.60(19) . 2_666
N4 K2 C59 121.13(18) . 2_666
C69 K2 C59 103.41(19) . 2_666
C70 K2 C59 85.53(18) . 2_666
C74 K2 C59 129.01(19) . 2_666
C73 K2 C59 133.53(19) . 2_666
C71 K2 C59 90.63(19) . 2_666
C72 K2 C59 112.7(2) . 2_666
N10 K2 C59 98.62(19) . 2_666
N5 K2 C60 93.6(2) . 2_666
N4 K2 C60 99.68(18) . 2_666
C69 K2 C60 112.4(2) . 2_666
C70 K2 C60 102.1(2) . 2_666
C74 K2 C60 137.6(2) . 2_666
C73 K2 C60 153.6(2) . 2_666
C71 K2 C60 112.7(2) . 2_666
C72 K2 C60 136.0(2) . 2_666
N10 K2 C60 91.11(19) . 2_666
C59 K2 C60 23.8(2) 2_666 2_666
N5 K2 K1 76.34(16) . .
N4 K2 K1 51.93(14) . .
C69 K2 K1 83.03(15) . .
C70 K2 K1 106.50(16) . .
C74 K2 K1 80.68(14) . .
C73 K2 K1 101.10(15) . .
C71 K2 K1 127.57(15) . .
C72 K2 K1 124.46(15) . .
N10 K2 K1 44.23(11) . .
C59 K2 K1 108.59(17) 2_666 .
C60 K2 K1 87.45(16) 2_666 .
O1 Si1 N1 103.3(2) . .
O1 Si1 C13 111.5(3) . .
N1 Si1 C13 115.7(3) . .
O1 Si1 C14 106.3(3) . .
N1 Si1 C14 114.4(3) . .
C13 Si1 C14 105.3(4) . .
O1 Si2 N2 104.6(3) . .
O1 Si2 C16 106.6(4) . .
N2 Si2 C16 115.0(3) . .
O1 Si2 C15 108.4(3) . .
N2 Si2 C15 114.8(3) . .
C16 Si2 C15 107.0(4) . .
N6 Si3 C38 107.3(4) . .
N6 Si3 C39 113.5(4) . .
C38 Si3 C39 110.2(5) . .
N6 Si3 C40 110.5(4) . .
C38 Si3 C40 110.5(5) . .
C39 Si3 C40 104.8(5) . .
O2 Si4 N7 104.7(3) . .
O2 Si4 C54 108.4(4) . .
N7 Si4 C54 114.2(3) . .
O2 Si4 C53 108.6(3) . .
N7 Si4 C53 114.6(4) . .
C54 Si4 C53 106.1(5) . .
O2 Si5 N8 103.7(3) . .
O2 Si5 C56 106.5(4) . .
N8 Si5 C56 114.6(4) . .
O2 Si5 C55 111.0(3) . .
N8 Si5 C55 114.9(3) . .
C56 Si5 C55 105.9(4) . .
N12 Si6 C80 114.3(4) . .
N12 Si6 C78 107.9(4) . .
C80 Si6 C78 108.9(5) . .
N12 Si6 C79 110.9(4) . .
C80 Si6 C79 104.2(5) . .
C78 Si6 C79 110.6(5) . .
Si1 O1 Si2 140.8(3) . .
Si4 O2 Si5 140.0(4) . .
C1 N1 Si1 124.1(4) . .
C1 N1 In1 123.6(4) . .
Si1 N1 In1 111.2(3) . .
C17 N2 Si2 125.4(4) . .
C17 N2 In1 121.6(4) . .
Si2 N2 In1 112.9(3) . .
N4 N3 C29 107.9(5) . .
N4 N3 In1 112.7(4) . .
C29 N3 In1 137.2(4) . .
N5 N4 N3 119.3(6) . .
N5 N4 K2 65.0(4) . .
N3 N4 K2 168.1(4) . .
N5 N4 K1 141.3(4) . .
N3 N4 K1 96.3(4) . .
K2 N4 K1 83.31(16) . .
N4 N5 N6 118.9(6) . .
N4 N5 K2 89.0(4) . .
N6 N5 K2 148.7(5) . .
N5 N6 Si3 111.5(4) . .
N5 N6 In1 112.9(4) . .
Si3 N6 In1 135.6(4) . .
C41 N7 Si4 123.3(5) . .
C41 N7 In2 123.4(4) . .
Si4 N7 In2 113.2(3) . .
C57 N8 Si5 125.1(4) . .
C57 N8 In2 123.4(4) . .
Si5 N8 In2 110.8(3) . .
N10 N9 C69 107.4(5) . .
N10 N9 In2 113.8(5) . .
C69 N9 In2 136.9(4) . .
N11 N10 N9 117.4(6) . .
N11 N10 K1 66.6(4) . .
N9 N10 K1 167.6(4) . .
N11 N10 K2 142.5(5) . .
N9 N10 K2 96.9(4) . .
K1 N10 K2 83.19(16) . .
N10 N11 N12 120.1(6) . .
N10 N11 K1 87.3(4) . .
N12 N11 K1 148.6(5) . .
N11 N12 Si6 110.4(4) . .
N11 N12 In2 113.7(4) . .
Si6 N12 In2 135.9(4) . .
C6 C1 N1 123.5(6) . .
C6 C1 C2 117.5(6) . .
N1 C1 C2 118.7(5) . .
C3 C2 C1 120.1(6) . .
C3 C2 C7 117.5(6) . .
C1 C2 C7 122.4(6) . .
C2 C3 C4 120.8(7) . .
C2 C3 H3 119.6 . .
C4 C3 H3 119.6 . .
C5 C4 C3 118.7(7) . .
C5 C4 K1 77.3(4) . 2_566
C3 C4 K1 140.1(5) . 2_566
C5 C4 H4 120.6 . .
C3 C4 H4 120.6 . .
K1 C4 H4 57.5 2_566 .
C4 C5 C6 122.4(7) . .
C4 C5 K1 78.9(4) . 2_566
C6 C5 K1 139.6(5) . 2_566
C4 C5 H5 118.8 . .
C6 C5 H5 118.8 . .
K1 C5 H5 53.7 2_566 .
C5 C6 C1 120.4(7) . .
C5 C6 C10 118.4(6) . .
C1 C6 C10 121.2(6) . .
C2 C7 C9 112.4(6) . .
C2 C7 C8 112.9(6) . .
C9 C7 C8 108.6(7) . .
C2 C7 H7 107.6 . .
C9 C7 H7 107.6 . .
C8 C7 H7 107.6 . .
C7 C8 H8A 109.5 . .
C7 C8 H8B 109.5 . .
H8A C8 H8B 109.5 . .
C7 C8 H8C 109.5 . .
H8A C8 H8C 109.5 . .
H8B C8 H8C 109.5 . .
C7 C9 H9A 109.5 . .
C7 C9 H9B 109.5 . .
H9A C9 H9B 109.5 . .
C7 C9 H9C 109.5 . .
H9A C9 H9C 109.5 . .
H9B C9 H9C 109.5 . .
C12 C10 C6 111.7(7) . .
C12 C10 C11 110.8(6) . .
C6 C10 C11 110.3(6) . .
C12 C10 H10 108 . .
C6 C10 H10 108 . .
C11 C10 H10 108 . .
C10 C11 H11A 109.5 . .
C10 C11 H11B 109.5 . .
H11A C11 H11B 109.5 . .
C10 C11 H11C 109.5 . .
H11A C11 H11C 109.5 . .
H11B C11 H11C 109.5 . .
C10 C12 H12A 109.5 . .
C10 C12 H12B 109.5 . .
H12A C12 H12B 109.5 . .
C10 C12 H12C 109.5 . .
H12A C12 H12C 109.5 . .
H12B C12 H12C 109.5 . .
Si1 C13 H13A 109.5 . .
Si1 C13 H13B 109.5 . .
H13A C13 H13B 109.5 . .
Si1 C13 H13C 109.5 . .
H13A C13 H13C 109.5 . .
H13B C13 H13C 109.5 . .
Si1 C14 H14A 109.5 . .
Si1 C14 H14B 109.5 . .
H14A C14 H14B 109.5 . .
Si1 C14 H14C 109.5 . .
H14A C14 H14C 109.5 . .
H14B C14 H14C 109.5 . .
Si2 C15 H15A 109.5 . .
Si2 C15 H15B 109.5 . .
H15A C15 H15B 109.5 . .
Si2 C15 H15C 109.5 . .
H15A C15 H15C 109.5 . .
H15B C15 H15C 109.5 . .
Si2 C16 H16A 109.5 . .
Si2 C16 H16B 109.5 . .
H16A C16 H16B 109.5 . .
Si2 C16 H16C 109.5 . .
H16A C16 H16C 109.5 . .
H16B C16 H16C 109.5 . .
C18 C17 C22 119.5(6) . .
C18 C17 N2 120.5(6) . .
C22 C17 N2 120.0(7) . .
C19 C18 C17 118.9(7) . .
C19 C18 C23 117.3(7) . .
C17 C18 C23 123.7(6) . .
C20 C19 C18 121.4(9) . .
C20 C19 H19 119.3 . .
C18 C19 H19 119.3 . .
C19 C20 C21 119.8(7) . .
C19 C20 H20 120.1 . .
C21 C20 H20 120.1 . .
C22 C21 C20 121.0(7) . .
C22 C21 H21 119.5 . .
C20 C21 H21 119.5 . .
C21 C22 C17 119.2(8) . .
C21 C22 C26 117.7(7) . .
C17 C22 C26 122.8(6) . .
C25 C23 C18 112.2(6) . .
C25 C23 C24 109.6(6) . .
C18 C23 C24 111.2(7) . .
C25 C23 H23 107.9 . .
C18 C23 H23 107.9 . .
C24 C23 H23 107.9 . .
C23 C24 H24A 109.5 . .
C23 C24 H24B 109.5 . .
H24A C24 H24B 109.5 . .
C23 C24 H24C 109.5 . .
H24A C24 H24C 109.5 . .
H24B C24 H24C 109.5 . .
C23 C25 H25A 109.5 . .
C23 C25 H25B 109.5 . .
H25A C25 H25B 109.5 . .
C23 C25 H25C 109.5 . .
H25A C25 H25C 109.5 . .
H25B C25 H25C 109.5 . .
C22 C26 C27 110.8(7) . .
C22 C26 C28 111.5(8) . .
C27 C26 C28 109.3(7) . .
C22 C26 H26 108.4 . .
C27 C26 H26 108.4 . .
C28 C26 H26 108.4 . .
C26 C27 H27A 109.5 . .
C26 C27 H27B 109.5 . .
H27A C27 H27B 109.5 . .
C26 C27 H27C 109.5 . .
H27A C27 H27C 109.5 . .
H27B C27 H27C 109.5 . .
C26 C28 H28A 109.5 . .
C26 C28 H28B 109.5 . .
H28A C28 H28B 109.5 . .
C26 C28 H28C 109.5 . .
H28A C28 H28C 109.5 . .
H28B C28 H28C 109.5 . .
C30 C29 C34 119.9(6) . .
C30 C29 N3 119.8(6) . .
C34 C29 N3 120.2(6) . .
C30 C29 K1 80.1(3) . .
C34 C29 K1 81.5(3) . .
N3 C29 K1 106.1(4) . .
C31 C30 C29 119.2(6) . .
C31 C30 C35 120.0(6) . .
C29 C30 C35 120.9(6) . .
C31 C30 K1 82.2(4) . .
C29 C30 K1 73.6(3) . .
C35 C30 K1 114.5(5) . .
C30 C31 C32 122.1(7) . .
C30 C31 K1 72.5(4) . .
C32 C31 K1 79.0(4) . .
C30 C31 H31 119 . .
C32 C31 H31 119 . .
K1 C31 H31 120.5 . .
C33 C32 C31 117.3(7) . .
C33 C32 C36 122.1(7) . .
C31 C32 C36 120.5(7) . .
C33 C32 K1 76.2(4) . .
C31 C32 K1 76.1(4) . .
C36 C32 K1 118.9(5) . .
C32 C33 C34 122.8(7) . .
C32 C33 K1 79.2(4) . .
C34 C33 K1 74.0(4) . .
C32 C33 H33 118.6 . .
C34 C33 H33 118.6 . .
K1 C33 H33 118.9 . .
C33 C34 C29 118.5(6) . .
C33 C34 C37 120.6(6) . .
C29 C34 C37 120.9(6) . .
C33 C34 K1 80.8(4) . .
C29 C34 K1 72.1(3) . .
C37 C34 K1 119.7(4) . .
C30 C35 H35A 109.5 . .
C30 C35 H35B 109.5 . .
H35A C35 H35B 109.5 . .
C30 C35 H35C 109.5 . .
H35A C35 H35C 109.5 . .
H35B C35 H35C 109.5 . .
C32 C36 H36A 109.5 . .
C32 C36 H36B 109.5 . .
H36A C36 H36B 109.5 . .
C32 C36 H36C 109.5 . .
H36A C36 H36C 109.5 . .
H36B C36 H36C 109.5 . .
C34 C37 H37A 109.5 . .
C34 C37 H37B 109.5 . .
H37A C37 H37B 109.5 . .
C34 C37 H37C 109.5 . .
H37A C37 H37C 109.5 . .
H37B C37 H37C 109.5 . .
Si3 C38 H38A 109.5 . .
Si3 C38 H38B 109.5 . .
H38A C38 H38B 109.5 . .
Si3 C38 H38C 109.5 . .
H38A C38 H38C 109.5 . .
H38B C38 H38C 109.5 . .
Si3 C39 H39A 109.5 . .
Si3 C39 H39B 109.5 . .
H39A C39 H39B 109.5 . .
Si3 C39 H39C 109.5 . .
H39A C39 H39C 109.5 . .
H39B C39 H39C 109.5 . .
Si3 C40 H40A 109.5 . .
Si3 C40 H40B 109.5 . .
H40A C40 H40B 109.5 . .
Si3 C40 H40C 109.5 . .
H40A C40 H40C 109.5 . .
H40B C40 H40C 109.5 . .
C42 C41 C46 119.5(6) . .
C42 C41 N7 120.5(6) . .
C46 C41 N7 120.1(6) . .
C43 C42 C41 119.4(7) . .
C43 C42 C47 117.1(7) . .
C41 C42 C47 123.4(6) . .
C44 C43 C42 120.8(8) . .
C44 C43 H43 119.6 . .
C42 C43 H43 119.6 . .
C45 C44 C43 120.0(7) . .
C45 C44 H44 120 . .
C43 C44 H44 120 . .
C44 C45 C46 122.2(7) . .
C44 C45 H45 118.9 . .
C46 C45 H45 118.9 . .
C45 C46 C41 118.0(7) . .
C45 C46 C50A 118.8(7) . .
C41 C46 C50A 123.0(6) . .
C45 C46 C50 118.8(7) . .
C41 C46 C50 123.0(6) . .
C48 C47 C42 111.9(6) . .
C48 C47 C49 110.4(7) . .
C42 C47 C49 111.6(7) . .
C48 C47 H47 107.5 . .
C42 C47 H47 107.5 . .
C49 C47 H47 107.5 . .
C47 C48 H48A 109.5 . .
C47 C48 H48B 109.5 . .
H48A C48 H48B 109.5 . .
C47 C48 H48C 109.5 . .
H48A C48 H48C 109.5 . .
H48B C48 H48C 109.5 . .
C47 C49 H49A 109.5 . .
C47 C49 H49B 109.5 . .
H49A C49 H49B 109.5 . .
C47 C49 H49C 109.5 . .
H49A C49 H49C 109.5 . .
H49B C49 H49C 109.5 . .
C50 C51 H51A 109.5 . .
C50 C51 H51B 109.5 . .
H51A C51 H51B 109.5 . .
C50 C51 H51C 109.5 . .
H51A C51 H51C 109.5 . .
H51B C51 H51C 109.5 . .
Si4 C53 H53A 109.5 . .
Si4 C53 H53B 109.5 . .
H53A C53 H53B 109.5 . .
Si4 C53 H53C 109.5 . .
H53A C53 H53C 109.5 . .
H53B C53 H53C 109.5 . .
Si4 C54 H54A 109.5 . .
Si4 C54 H54B 109.5 . .
H54A C54 H54B 109.5 . .
Si4 C54 H54C 109.5 . .
H54A C54 H54C 109.5 . .
H54B C54 H54C 109.5 . .
Si5 C55 H55A 109.5 . .
Si5 C55 H55B 109.5 . .
H55A C55 H55B 109.5 . .
Si5 C55 H55C 109.5 . .
H55A C55 H55C 109.5 . .
H55B C55 H55C 109.5 . .
Si5 C56 H56A 109.5 . .
Si5 C56 H56B 109.5 . .
H56A C56 H56B 109.5 . .
Si5 C56 H56C 109.5 . .
H56A C56 H56C 109.5 . .
H56B C56 H56C 109.5 . .
C62 C57 C58 118.1(6) . .
C62 C57 N8 120.8(6) . .
C58 C57 N8 121.1(6) . .
C59 C58 C57 119.9(7) . .
C59 C58 C63 118.0(7) . .
C57 C58 C63 122.0(7) . .
C60 C59 C58 121.4(7) . .
C60 C59 K2 79.8(4) . 2_666
C58 C59 K2 138.3(6) . 2_666
C60 C59 H59 119.3 . .
C58 C59 H59 119.3 . .
K2 C59 H59 54.5 2_666 .
C59 C60 C61 119.5(7) . .
C59 C60 K2 76.5(4) . 2_666
C61 C60 K2 139.0(5) . 2_666
C59 C60 H60 120.2 . .
C61 C60 H60 120.2 . .
K2 C60 H60 58.9 2_666 .
C60 C61 C62 121.1(7) . .
C60 C61 H61 119.5 . .
C62 C61 H61 119.5 . .
C61 C62 C57 119.8(6) . .
C61 C62 C66 117.4(6) . .
C57 C62 C66 122.7(6) . .
C58 C63 C65 112.1(7) . .
C58 C63 C64 110.5(6) . .
C65 C63 C64 111.0(7) . .
C58 C63 H63 107.7 . .
C65 C63 H63 107.7 . .
C64 C63 H63 107.7 . .
C63 C64 H64A 109.5 . .
C63 C64 H64B 109.5 . .
H64A C64 H64B 109.5 . .
C63 C64 H64C 109.5 . .
H64A C64 H64C 109.5 . .
H64B C64 H64C 109.5 . .
C63 C65 H65A 109.5 . .
C63 C65 H65B 109.5 . .
H65A C65 H65B 109.5 . .
C63 C65 H65C 109.5 . .
H65A C65 H65C 109.5 . .
H65B C65 H65C 109.5 . .
C68 C66 C62 111.8(6) . .
C68 C66 C67 110.2(7) . .
C62 C66 C67 111.8(6) . .
C68 C66 H66 107.6 . .
C62 C66 H66 107.6 . .
C67 C66 H66 107.6 . .
C66 C67 H67A 109.5 . .
C66 C67 H67B 109.5 . .
H67A C67 H67B 109.5 . .
C66 C67 H67C 109.5 . .
H67A C67 H67C 109.5 . .
H67B C67 H67C 109.5 . .
C66 C68 H68A 109.5 . .
C66 C68 H68B 109.5 . .
H68A C68 H68B 109.5 . .
C66 C68 H68C 109.5 . .
H68A C68 H68C 109.5 . .
H68B C68 H68C 109.5 . .
C70 C69 C74 119.1(7) . .
C70 C69 N9 120.8(6) . .
C74 C69 N9 120.0(6) . .
C70 C69 K2 80.4(4) . .
C74 C69 K2 80.6(4) . .
N9 C69 K2 106.6(4) . .
C71 C70 C69 120.1(7) . .
C71 C70 C75 119.3(7) . .
C69 C70 C75 120.6(7) . .
C71 C70 K2 81.7(4) . .
C69 C70 K2 73.7(4) . .
C75 C70 K2 114.5(5) . .
C70 C71 C72 121.8(7) . .
C70 C71 K2 73.4(4) . .
C72 C71 K2 78.6(4) . .
C70 C71 H71 119.1 . .
C72 C71 H71 119.1 . .
K2 C71 H71 119.8 . .
C73 C72 C71 117.7(7) . .
C73 C72 C76 122.1(7) . .
C71 C72 C76 120.2(7) . .
C73 C72 K2 75.3(4) . .
C71 C72 K2 76.6(4) . .
C76 C72 K2 118.1(5) . .
C72 C73 C74 122.4(7) . .
C72 C73 K2 80.4(4) . .
C74 C73 K2 74.9(4) . .
C72 C73 H73 118.8 . .
C74 C73 H73 118.8 . .
K2 C73 H73 116.3 . .
C69 C74 C73 118.6(7) . .
C69 C74 C77 121.8(7) . .
C73 C74 C77 119.5(6) . .
C69 C74 K2 73.3(4) . .
C73 C74 K2 79.4(4) . .
C77 C74 K2 120.2(4) . .
C70 C75 H75A 109.5 . .
C70 C75 H75B 109.5 . .
H75A C75 H75B 109.5 . .
C70 C75 H75C 109.5 . .
H75A C75 H75C 109.5 . .
H75B C75 H75C 109.5 . .
C72 C76 H76A 109.5 . .
C72 C76 H76B 109.5 . .
H76A C76 H76B 109.5 . .
C72 C76 H76C 109.5 . .
H76A C76 H76C 109.5 . .
H76B C76 H76C 109.5 . .
C74 C77 H77A 109.5 . .
C74 C77 H77B 109.5 . .
H77A C77 H77B 109.5 . .
C74 C77 H77C 109.5 . .
H77A C77 H77C 109.5 . .
H77B C77 H77C 109.5 . .
Si6 C78 H78A 109.5 . .
Si6 C78 H78B 109.5 . .
H78A C78 H78B 109.5 . .
Si6 C78 H78C 109.5 . .
H78A C78 H78C 109.5 . .
H78B C78 H78C 109.5 . .
Si6 C79 H79A 109.5 . .
Si6 C79 H79B 109.5 . .
H79A C79 H79B 109.5 . .
Si6 C79 H79C 109.5 . .
H79A C79 H79C 109.5 . .
H79B C79 H79C 109.5 . .
Si6 C80 H80A 109.5 . .
Si6 C80 H80B 109.5 . .
H80A C80 H80B 109.5 . .
Si6 C80 H80C 109.5 . .
H80A C80 H80C 109.5 . .
H80B C80 H80C 109.5 . .
C51 C50 C52 101.5(13) . .
C51 C50 C46 110.3(7) . .
C52 C50 C46 123.7(16) . .
C51 C50 H50 106.8 . .
C52 C50 H50 106.8 . .
C46 C50 H50 106.8 . .
C50 C52 H52A 109.5 . .
C50 C52 H52B 109.5 . .
H52A C52 H52B 109.5 . .
C50 C52 H52C 109.5 . .
H52A C52 H52C 109.5 . .
H52B C52 H52C 109.5 . .
C51 C50A C46 110.3(7) . .
C51 C50A C52A 116.0(12) . .
C46 C50A C52A 103.6(15) . .
C51 C50A H50A 108.9 . .
C46 C50A H50A 108.9 . .
C52A C50A H50A 108.9 . .
C50A C52A H52D 109.5 . .
C50A C52A H52E 109.5 . .
H52D C52A H52E 109.5 . .
C50A C52A H52F 109.5 . .
H52D C52A H52F 109.5 . .
H52E C52A H52F 109.5 . .
loop_
_geom_bond_atom_site_label_1
_geom_bond_atom_site_label_2
_geom_bond_distance
_geom_bond_site_symmetry_2
In1 N3 2.116(5) .
In1 N2 2.117(5) .
In1 N1 2.137(5) .
In1 N6 2.147(5) .
In2 N7 2.091(6) .
In2 N9 2.117(6) .
In2 N8 2.132(5) .
In2 N12 2.146(6) .
K1 N11 2.653(6) .
K1 N10 2.887(6) .
K1 C29 3.023(6) .
K1 C30 3.105(6) .
K1 C34 3.142(6) .
K1 C33 3.226(7) .
K1 C31 3.227(7) .
K1 N4 3.258(7) .
K1 C32 3.263(7) .
K1 C5 3.316(7) 2_566
K1 C4 3.336(8) 2_566
K1 K2 4.110(3) .
K2 N5 2.641(6) .
K2 N4 2.913(6) .
K2 C69 3.054(7) .
K2 C70 3.138(6) .
K2 C74 3.146(7) .
K2 C73 3.203(7) .
K2 C71 3.240(7) .
K2 C72 3.264(8) .
K2 N10 3.287(7) .
K2 C59 3.290(7) 2_666
K2 C60 3.329(8) 2_666
Si1 O1 1.639(5) .
Si1 N1 1.705(5) .
Si1 C13 1.859(7) .
Si1 C14 1.875(7) .
Si2 O1 1.643(5) .
Si2 N2 1.693(5) .
Si2 C16 1.856(8) .
Si2 C15 1.870(9) .
Si3 N6 1.730(6) .
Si3 C38 1.860(10) .
Si3 C39 1.880(9) .
Si3 C40 1.888(10) .
Si4 O2 1.629(6) .
Si4 N7 1.713(6) .
Si4 C54 1.848(9) .
Si4 C53 1.871(10) .
Si5 O2 1.647(5) .
Si5 N8 1.712(6) .
Si5 C56 1.859(9) .
Si5 C55 1.871(7) .
Si6 N12 1.755(6) .
Si6 C80 1.853(10) .
Si6 C78 1.866(12) .
Si6 C79 1.886(9) .
N1 C1 1.418(8) .
N2 C17 1.441(8) .
N3 N4 1.398(8) .
N3 C29 1.428(9) .
N4 N5 1.277(9) .
N5 N6 1.373(9) .
N7 C41 1.433(8) .
N8 C57 1.424(9) .
N9 N10 1.402(8) .
N9 C69 1.433(9) .
N10 N11 1.272(9) .
N11 N12 1.347(10) .
C1 C6 1.394(9) .
C1 C2 1.449(9) .
C2 C3 1.384(10) .
C2 C7 1.513(9) .
C3 C4 1.400(10) .
C3 H3 0.95 .
C4 C5 1.370(11) .
C4 K1 3.336(8) 2_566
C4 H4 0.95 .
C5 C6 1.389(10) .
C5 K1 3.315(7) 2_566
C5 H5 0.95 .
C6 C10 1.521(10) .
C7 C9 1.521(11) .
C7 C8 1.523(10) .
C7 H7 1 .
C8 H8A 0.98 .
C8 H8B 0.98 .
C8 H8C 0.98 .
C9 H9A 0.98 .
C9 H9B 0.98 .
C9 H9C 0.98 .
C10 C12 1.510(10) .
C10 C11 1.545(10) .
C10 H10 1 .
C11 H11A 0.98 .
C11 H11B 0.98 .
C11 H11C 0.98 .
C12 H12A 0.98 .
C12 H12B 0.98 .
C12 H12C 0.98 .
C13 H13A 0.98 .
C13 H13B 0.98 .
C13 H13C 0.98 .
C14 H14A 0.98 .
C14 H14B 0.98 .
C14 H14C 0.98 .
C15 H15A 0.98 .
C15 H15B 0.98 .
C15 H15C 0.98 .
C16 H16A 0.98 .
C16 H16B 0.98 .
C16 H16C 0.98 .
C17 C18 1.416(11) .
C17 C22 1.418(10) .
C18 C19 1.396(10) .
C18 C23 1.521(11) .
C19 C20 1.371(13) .
C19 H19 0.95 .
C20 C21 1.393(13) .
C20 H20 0.95 .
C21 C22 1.387(10) .
C21 H21 0.95 .
C22 C26 1.513(12) .
C23 C25 1.518(11) .
C23 C24 1.545(9) .
C23 H23 1 .
C24 H24A 0.98 .
C24 H24B 0.98 .
C24 H24C 0.98 .
C25 H25A 0.98 .
C25 H25B 0.98 .
C25 H25C 0.98 .
C26 C27 1.514(12) .
C26 C28 1.559(11) .
C26 H26 1 .
C27 H27A 0.98 .
C27 H27B 0.98 .
C27 H27C 0.98 .
C28 H28A 0.98 .
C28 H28B 0.98 .
C28 H28C 0.98 .
C29 C30 1.399(9) .
C29 C34 1.415(9) .
C30 C31 1.392(10) .
C30 C35 1.513(9) .
C31 C32 1.397(11) .
C31 H31 0.95 .
C32 C33 1.387(11) .
C32 C36 1.494(11) .
C33 C34 1.389(10) .
C33 H33 0.95 .
C34 C37 1.503(10) .
C35 H35A 0.98 .
C35 H35B 0.98 .
C35 H35C 0.98 .
C36 H36A 0.98 .
C36 H36B 0.98 .
C36 H36C 0.98 .
C37 H37A 0.98 .
C37 H37B 0.98 .
C37 H37C 0.98 .
C38 H38A 0.98 .
C38 H38B 0.98 .
C38 H38C 0.98 .
C39 H39A 0.98 .
C39 H39B 0.98 .
C39 H39C 0.98 .
C40 H40A 0.98 .
C40 H40B 0.98 .
C40 H40C 0.98 .
C41 C42 1.422(11) .
C41 C46 1.424(10) .
C42 C43 1.402(10) .
C42 C47 1.525(11) .
C43 C44 1.388(13) .
C43 H43 0.95 .
C44 C45 1.364(13) .
C44 H44 0.95 .
C45 C46 1.414(10) .
C45 H45 0.95 .
C46 C50A 1.527(12) .
C46 C50 1.527(12) .
C47 C48 1.491(11) .
C47 C49 1.525(10) .
C47 H47 1 .
C48 H48A 0.98 .
C48 H48B 0.98 .
C48 H48C 0.98 .
C49 H49A 0.98 .
C49 H49B 0.98 .
C49 H49C 0.98 .
C51 C50A 1.519(13) .
C51 C50 1.519(13) .
C51 H51A 0.98 .
C51 H51B 0.98 .
C51 H51C 0.98 .
C53 H53A 0.98 .
C53 H53B 0.98 .
C53 H53C 0.98 .
C54 H54A 0.98 .
C54 H54B 0.98 .
C54 H54C 0.98 .
C55 H55A 0.98 .
C55 H55B 0.98 .
C55 H55C 0.98 .
C56 H56A 0.98 .
C56 H56B 0.98 .
C56 H56C 0.98 .
C57 C62 1.405(9) .
C57 C58 1.411(10) .
C58 C59 1.394(11) .
C58 C63 1.518(10) .
C59 C60 1.363(12) .
C59 K2 3.290(7) 2_666
C59 H59 0.95 .
C60 C61 1.374(11) .
C60 K2 3.329(8) 2_666
C60 H60 0.95 .
C61 C62 1.402(10) .
C61 H61 0.95 .
C62 C66 1.519(9) .
C63 C65 1.530(12) .
C63 C64 1.541(11) .
C63 H63 1 .
C64 H64A 0.98 .
C64 H64B 0.98 .
C64 H64C 0.98 .
C65 H65A 0.98 .
C65 H65B 0.98 .
C65 H65C 0.98 .
C66 C68 1.511(11) .
C66 C67 1.534(10) .
C66 H66 1 .
C67 H67A 0.98 .
C67 H67B 0.98 .
C67 H67C 0.98 .
C68 H68A 0.98 .
C68 H68B 0.98 .
C68 H68C 0.98 .
C69 C70 1.390(10) .
C69 C74 1.405(10) .
C70 C71 1.379(11) .
C70 C75 1.502(10) .
C71 C72 1.397(11) .
C71 H71 0.95 .
C72 C73 1.362(11) .
C72 C76 1.506(11) .
C73 C74 1.409(10) .
C73 H73 0.95 .
C74 C77 1.501(10) .
C75 H75A 0.98 .
C75 H75B 0.98 .
C75 H75C 0.98 .
C76 H76A 0.98 .
C76 H76B 0.98 .
C76 H76C 0.98 .
C77 H77A 0.98 .
C77 H77B 0.98 .
C77 H77C 0.98 .
C78 H78A 0.98 .
C78 H78B 0.98 .
C78 H78C 0.98 .
C79 H79A 0.98 .
C79 H79B 0.98 .
C79 H79C 0.98 .
C80 H80A 0.98 .
C80 H80B 0.98 .
C80 H80C 0.98 .
C50 C52 1.520(15) .
C50 H50 1 .
C52 H52A 0.98 .
C52 H52B 0.98 .
C52 H52C 0.98 .
C50A C52A 1.568(16) .
C50A H50A 1 .
C52A H52D 0.98 .
C52A H52E 0.98 .
C52A H52F 0.98 .
