#------------------------------------------------------------------------------
#$Date: 2018-11-13 01:23:01 +0200 (Tue, 13 Nov 2018) $
#$Revision: 211905 $
#$URL: file:///home/coder/svn-repositories/cod/cif/1/55/02/1550222.cif $
#------------------------------------------------------------------------------
#
# This file is available in the Crystallography Open Database (COD),
# http://www.crystallography.net/
#
# All data on this site have been placed in the public domain by the
# contributors.
#
data_1550222
loop_
_publ_author_name
'Liu, Rai-Shung'
'Singh, RahulKumar Rajmani'
'Skaria, Manisha'
'Chen, Liang-Yu'
'Cheng, Mu-Jeng'
_publ_section_title
;
 Gold-catalyzed (4+3)-Annulations of 2-Alkenyl-1-Alkynylbenzenes with
 Anthranils with Alkyne-Dependent Chemoselectivity: Skeletal Rearrangement
 versus Non-Rearrangement
;
_journal_name_full               'Chemical Science'
_journal_paper_doi               10.1039/C8SC03619E
_journal_year                    2019
_chemical_formula_sum            'C27 H28 N2 O2'
_chemical_formula_weight         412.51
_space_group_crystal_system      triclinic
_space_group_IT_number           2
_space_group_name_Hall           '-P 1'
_space_group_name_H-M_alt        'P -1'
_symmetry_space_group_name_Hall  '-P 1'
_symmetry_space_group_name_H-M   'P -1'
_atom_sites_solution_hydrogens   mixed
_audit_creation_method           SHELXL-2014/6
_audit_update_record
;
2018-07-05 deposited with the CCDC.
2018-11-12 downloaded from the CCDC.
;
_cell_angle_alpha                93.783(5)
_cell_angle_beta                 95.871(5)
_cell_angle_gamma                109.707(5)
_cell_formula_units_Z            2
_cell_length_a                   7.5024(14)
_cell_length_b                   9.4863(17)
_cell_length_c                   15.949(3)
_cell_measurement_reflns_used    9965
_cell_measurement_temperature    100(2)
_cell_measurement_theta_max      26.3311
_cell_measurement_theta_min      2.5825
_cell_volume                     1056.9(3)
_computing_cell_refinement       'SAINT V8.34A (Bruker AXS Inc., 2013)'
_computing_data_collection       'Bruker APEX2'
_computing_data_reduction        'SAINT V8.34A (Bruker AXS Inc., 2013)'
_computing_molecular_graphics    'Bruker SHELXTL'
_computing_publication_material  'Bruker SHELXTL'
_computing_structure_refinement  'SHELXL-2014/6 (Sheldrick, 2014)'
_diffrn_ambient_temperature      100(2)
_diffrn_detector_area_resol_mean 8.3333
_diffrn_measured_fraction_theta_full 0.999
_diffrn_measured_fraction_theta_max 0.994
_diffrn_measurement_device_type  'Bruker APEX-II CCD'
_diffrn_measurement_method       '\f and \w scans'
_diffrn_radiation_type           MoK\a
_diffrn_radiation_wavelength     0.71073
_diffrn_reflns_av_R_equivalents  0.0273
_diffrn_reflns_av_unetI/netI     0.0192
_diffrn_reflns_Laue_measured_fraction_full 0.999
_diffrn_reflns_Laue_measured_fraction_max 0.994
_diffrn_reflns_limit_h_max       9
_diffrn_reflns_limit_h_min       -9
_diffrn_reflns_limit_k_max       11
_diffrn_reflns_limit_k_min       -9
_diffrn_reflns_limit_l_max       19
_diffrn_reflns_limit_l_min       -19
_diffrn_reflns_number            24878
_diffrn_reflns_point_group_measured_fraction_full 0.999
_diffrn_reflns_point_group_measured_fraction_max 0.994
_diffrn_reflns_theta_full        25.242
_diffrn_reflns_theta_max         26.362
_diffrn_reflns_theta_min         1.291
_exptl_absorpt_coefficient_mu    0.082
_exptl_absorpt_correction_T_max  0.9485
_exptl_absorpt_correction_T_min  0.8638
_exptl_absorpt_correction_type   multi-scan
_exptl_absorpt_process_details   'SADABS V2014/4 (Bruker AXS Inc.)'
_exptl_crystal_colour            Colorless
_exptl_crystal_density_diffrn    1.296
_exptl_crystal_density_meas      ?
_exptl_crystal_density_method    'not measured'
_exptl_crystal_description       Lump
_exptl_crystal_F_000             440
_exptl_crystal_size_max          0.14
_exptl_crystal_size_mid          0.12
_exptl_crystal_size_min          0.09
_refine_diff_density_max         0.589
_refine_diff_density_min         -0.617
_refine_diff_density_rms         0.049
_refine_ls_extinction_method     none
_refine_ls_goodness_of_fit_ref   1.034
_refine_ls_hydrogen_treatment    mixed
_refine_ls_matrix_type           full
_refine_ls_number_parameters     286
_refine_ls_number_reflns         4304
_refine_ls_number_restraints     0
_refine_ls_restrained_S_all      1.034
_refine_ls_R_factor_all          0.0505
_refine_ls_R_factor_gt           0.0421
_refine_ls_shift/su_max          0.000
_refine_ls_shift/su_mean         0.000
_refine_ls_structure_factor_coef Fsqd
_refine_ls_weighting_details
'w=1/[\s^2^(Fo^2^)+(0.0463P)^2^+0.7975P] where P=(Fo^2^+2Fc^2^)/3'
_refine_ls_weighting_scheme      calc
_refine_ls_wR_factor_gt          0.1020
_refine_ls_wR_factor_ref         0.1087
_reflns_Friedel_coverage         0.000
_reflns_number_gt                3712
_reflns_number_total             4304
_reflns_threshold_expression     'I > 2\s(I)'
_cod_data_source_file            c8sc03619e2.cif
_cod_data_source_block           mo_180134lt_0m
_cod_depositor_comments
;
The following automatic conversions were performed:

'_exptl_crystal_density_meas' value 'not measured' was changed to '?'
- the value is perceived as not measured.

Automatic conversion script
Id: cif_fix_values 4973 2017-02-22 13:04:09Z antanas 
;
_cod_database_code               1550222
_shelx_space_group_comment
;
The symmetry employed for this shelxl refinement is uniquely defined
by the following loop, which should always be used as a source of
symmetry information in preference to the above space-group names.
They are only intended as comments.
;
_shelxl_version_number           2014/6
_shelx_res_file
;
TITL mo_180134lt_0m in P-1
CELL 0.71073 7.5024 9.4863 15.9489 93.783 95.871 109.707
ZERR 2.00 0.0014 0.0017 0.0029 0.005 0.005 0.005
LATT 1
SFAC C  H  N  O
UNIT 54  56  4  4
L.S. 4
ACTA
BOND $H
FMAP 2
PLAN 5
TEMP -173.160
WGHT    0.046300    0.797500
FVAR       0.72905
O1    4   -0.170966    0.225986    0.223834    11.00000    0.01964    0.01722 =
         0.03065    0.00331    0.00617    0.00885
H1    2   -0.115300    0.160233    0.234556    11.00000   -1.50000
O2    4    0.001732    0.931810    0.172815    11.00000    0.02279    0.01293 =
         0.01540    0.00203    0.00051    0.00789
N1    3    0.102297    0.516191    0.195529    11.00000    0.01290    0.01233 =
         0.02252   -0.00199    0.00324    0.00361
AFIX  43
H1A   2   -0.018318    0.489069    0.203808    11.00000   -1.20000
AFIX   0
N2    3    0.004688    0.998645    0.258534    11.00000    0.01765    0.01461 =
         0.01614    0.00022    0.00043    0.00704
C1    1   -0.181201    0.236445    0.134341    11.00000    0.01716    0.01398 =
         0.02950   -0.00146   -0.00299    0.00516
AFIX  23
H28   2   -0.244400    0.309626    0.119963    11.00000   -1.20000
H29   2   -0.260935    0.137141    0.103991    11.00000   -1.20000
AFIX   0
C2    1    0.011757    0.284645    0.104205    11.00000    0.01986    0.01344 =
         0.01881    0.00263   -0.00163    0.00776
C3    1    0.152764    0.424479    0.137383    11.00000    0.02037    0.01275 =
         0.01468    0.00249    0.00017    0.00902
C4    1    0.235643    0.653521    0.243330    11.00000    0.01368    0.01093 =
         0.01835    0.00108    0.00220    0.00494
AFIX  13
H22   2    0.367699    0.655963    0.236635    11.00000   -1.20000
AFIX   0
C5    1    0.217866    0.802615    0.215369    11.00000    0.01393    0.01176 =
         0.01560    0.00112    0.00264    0.00463
C6    1    0.008368    0.782654    0.184566    11.00000    0.01739    0.00996 =
         0.01573    0.00093    0.00027    0.00514
AFIX  13
H19   2   -0.040393    0.713247    0.130862    11.00000   -1.20000
AFIX   0
C7    1   -0.125467    0.736746    0.250280    11.00000    0.01186    0.01655 =
         0.01560    0.00114   -0.00158    0.00745
C8    1   -0.117638    0.870343    0.294336    11.00000    0.01309    0.01450 =
         0.01744    0.00153   -0.00249    0.00631
C9    1   -0.218292    0.873343    0.361862    11.00000    0.01578    0.02017 =
         0.02057   -0.00188   -0.00043    0.01018
AFIX  43
H10   2   -0.212748    0.965796    0.390840    11.00000   -1.20000
AFIX   0
C10   1   -0.328218    0.735462    0.385775    11.00000    0.01346    0.02621 =
         0.01762    0.00167    0.00191    0.00838
AFIX  43
H2    2   -0.395358    0.733266    0.433327    11.00000   -1.20000
AFIX   0
C11   1    0.220515    0.663384    0.336472    11.00000    0.00968    0.01328 =
         0.01872    0.00255    0.00212    0.00459
C12   1    0.194306    0.547396    0.387850    11.00000    0.01355    0.01274 =
         0.02710    0.00571    0.00337    0.00494
AFIX  43
H21   2    0.165620    0.446783    0.363610    11.00000   -1.20000
AFIX   0
C13   1    0.210391    0.579850    0.474668    11.00000    0.01442    0.02203 =
         0.02526    0.01262    0.00528    0.00678
AFIX  43
H4    2    0.191102    0.501302    0.510469    11.00000   -1.20000
AFIX   0
C14   1    0.254811    0.727569    0.509332    11.00000    0.01508    0.02800 =
         0.01621    0.00517    0.00306    0.00888
AFIX  43
H5    2    0.267986    0.749810    0.569081    11.00000   -1.20000
AFIX   0
C15   1    0.280335    0.843723    0.457543    11.00000    0.01392    0.01732 =
         0.01951    0.00158    0.00192    0.00661
AFIX  43
H6    2    0.313161    0.944661    0.482084    11.00000   -1.20000
AFIX   0
C16   1    0.257662    0.811680    0.369694    11.00000    0.00935    0.01310 =
         0.01898    0.00275    0.00191    0.00453
C17   1    0.289372    0.915731    0.299108    11.00000    0.01401    0.01110 =
         0.01580    0.00121    0.00101    0.00443
AFIX  13
H20   2    0.430899    0.963121    0.301041    11.00000   -1.20000
AFIX   0
C18   1    0.335829    0.852248    0.142568    11.00000    0.02023    0.01687 =
         0.01860    0.00388    0.00636    0.00552
AFIX 137
H7    2    0.295832    0.770444    0.096227    11.00000   -1.50000
H8    2    0.471604    0.876563    0.162949    11.00000   -1.50000
H9    2    0.315391    0.941435    0.122031    11.00000   -1.50000
AFIX   0
C19   1   -0.240137    0.600175    0.272319    11.00000    0.01313    0.01477 =
         0.02076    0.00045   -0.00064    0.00592
AFIX  43
H12   2   -0.250012    0.508088    0.241496    11.00000   -1.20000
AFIX   0
C20   1   -0.340857    0.601268    0.340986    11.00000    0.01280    0.01915 =
         0.02304    0.00510    0.00125    0.00503
AFIX  43
H11   2   -0.419499    0.508521    0.357390    11.00000   -1.20000
AFIX   0
C21   1    0.208820    1.048963    0.300361    11.00000    0.01664    0.01080 =
         0.01946    0.00072   -0.00081    0.00502
C22   1    0.326451    1.173768    0.251632    11.00000    0.02156    0.01274 =
         0.02569    0.00414    0.00033    0.00533
AFIX 137
H14   2    0.313220    1.135071    0.191958    11.00000   -1.50000
H13   2    0.461167    1.207384    0.276028    11.00000   -1.50000
H15   2    0.280300    1.258776    0.255702    11.00000   -1.50000
AFIX   0
C23   1    0.209139    1.120367    0.388994    11.00000    0.02329    0.01438 =
         0.02186   -0.00205   -0.00102    0.00913
AFIX 137
H18   2    0.155055    1.200717    0.384575    11.00000   -1.50000
H16   2    0.340518    1.162654    0.417848    11.00000   -1.50000
H17   2    0.132048    1.043584    0.421475    11.00000   -1.50000
AFIX   0
C24   1    0.332225    0.462939    0.110132    11.00000    0.02098    0.01387 =
         0.01916    0.00335    0.00346    0.00638
AFIX  43
H24   2    0.427507    0.557435    0.130582    11.00000   -1.20000
AFIX   0
C25   1    0.372735    0.363974    0.053237    11.00000    0.02660    0.01959 =
         0.01886    0.00708    0.00784    0.01189
AFIX  43
H25   2    0.497166    0.390206    0.036937    11.00000   -1.20000
AFIX   0
C26   1    0.235116    0.228219    0.020043    11.00000    0.03567    0.01794 =
         0.01669    0.00167    0.00538    0.01487
AFIX  43
H26   2    0.262850    0.161982   -0.019701    11.00000   -1.20000
AFIX   0
C27   1    0.055636    0.190675    0.045961    11.00000    0.02887    0.01320 =
         0.01815   -0.00087   -0.00288    0.00828
AFIX  43
H27   2   -0.040067    0.097767    0.023101    11.00000   -1.20000
AFIX   0
HKLF 4 1 1 0 0 0 1 0 0 0 1

REM  mo_180134lt_0m in P-1
REM R1 =  0.0421 for    3712 Fo > 4sig(Fo)  and  0.0505 for all    4304 data
REM    286 parameters refined using      0 restraints

END

WGHT      0.0463      0.7976

REM Highest difference peak  0.589,  deepest hole -0.617,  1-sigma level  0.049
Q1    1   0.0230  0.4558  0.2346  11.00000  0.05    0.59
Q2    1   0.2182  0.6427  0.2898  11.00000  0.05    0.39
Q3    1   0.2518  0.8640  0.2560  11.00000  0.05    0.34
Q4    1   0.2941  0.8404  0.1884  11.00000  0.05    0.33
Q5    1   0.2637  0.8678  0.3380  11.00000  0.05    0.31
;
_shelx_res_checksum              74722
loop_
_space_group_symop_operation_xyz
'x, y, z'
'-x, -y, -z'
loop_
_atom_site_label
_atom_site_type_symbol
_atom_site_fract_x
_atom_site_fract_y
_atom_site_fract_z
_atom_site_U_iso_or_equiv
_atom_site_adp_type
_atom_site_occupancy
_atom_site_site_symmetry_order
_atom_site_calc_flag
_atom_site_refinement_flags_posn
_atom_site_refinement_flags_adp
O1 O -0.17097(16) 0.22599(13) 0.22383(7) 0.0216(2) Uani 1 1 d . .
H1 H -0.115(3) 0.160(2) 0.2346(13) 0.032 Uiso 1 1 d . U
O2 O 0.00173(15) 0.93181(11) 0.17281(6) 0.0167(2) Uani 1 1 d . .
N1 N 0.10230(17) 0.51619(14) 0.19553(8) 0.0162(3) Uani 1 1 d . .
H1A H -0.0183 0.4891 0.2038 0.019 Uiso 1 1 calc R U
N2 N 0.00469(18) 0.99864(14) 0.25853(8) 0.0160(3) Uani 1 1 d . .
C1 C -0.1812(2) 0.23645(17) 0.13434(10) 0.0209(3) Uani 1 1 d . .
H28 H -0.2444 0.3096 0.1200 0.025 Uiso 1 1 calc R U
H29 H -0.2609 0.1371 0.1040 0.025 Uiso 1 1 calc R U
C2 C 0.0118(2) 0.28464(17) 0.10420(9) 0.0171(3) Uani 1 1 d . .
C3 C 0.1528(2) 0.42448(16) 0.13738(9) 0.0152(3) Uani 1 1 d . .
C4 C 0.2356(2) 0.65352(16) 0.24333(9) 0.0142(3) Uani 1 1 d . .
H22 H 0.3677 0.6560 0.2366 0.017 Uiso 1 1 calc R U
C5 C 0.2179(2) 0.80262(16) 0.21537(9) 0.0137(3) Uani 1 1 d . .
C6 C 0.0084(2) 0.78265(16) 0.18457(9) 0.0144(3) Uani 1 1 d . .
H19 H -0.0404 0.7132 0.1309 0.017 Uiso 1 1 calc R U
C7 C -0.1255(2) 0.73675(17) 0.25028(9) 0.0143(3) Uani 1 1 d . .
C8 C -0.1176(2) 0.87034(16) 0.29434(9) 0.0150(3) Uani 1 1 d . .
C9 C -0.2183(2) 0.87334(18) 0.36186(10) 0.0182(3) Uani 1 1 d . .
H10 H -0.2127 0.9658 0.3908 0.022 Uiso 1 1 calc R U
C10 C -0.3282(2) 0.73546(18) 0.38578(9) 0.0188(3) Uani 1 1 d . .
H2 H -0.3954 0.7333 0.4333 0.023 Uiso 1 1 calc R U
C11 C 0.22051(19) 0.66338(16) 0.33647(9) 0.0137(3) Uani 1 1 d . .
C12 C 0.1943(2) 0.54740(17) 0.38785(10) 0.0175(3) Uani 1 1 d . .
H21 H 0.1656 0.4468 0.3636 0.021 Uiso 1 1 calc R U
C13 C 0.2104(2) 0.57985(18) 0.47467(10) 0.0198(3) Uani 1 1 d . .
H4 H 0.1911 0.5013 0.5105 0.024 Uiso 1 1 calc R U
C14 C 0.2548(2) 0.72757(18) 0.50933(9) 0.0192(3) Uani 1 1 d . .
H5 H 0.2680 0.7498 0.5691 0.023 Uiso 1 1 calc R U
C15 C 0.2803(2) 0.84372(17) 0.45754(9) 0.0166(3) Uani 1 1 d . .
H6 H 0.3132 0.9447 0.4821 0.020 Uiso 1 1 calc R U
C16 C 0.25766(19) 0.81168(16) 0.36969(9) 0.0136(3) Uani 1 1 d . .
C17 C 0.2894(2) 0.91573(16) 0.29911(9) 0.0137(3) Uani 1 1 d . .
H20 H 0.4309 0.9631 0.3010 0.016 Uiso 1 1 calc R U
C18 C 0.3358(2) 0.85225(17) 0.14257(9) 0.0184(3) Uani 1 1 d . .
H7 H 0.2958 0.7704 0.0962 0.028 Uiso 1 1 calc R U
H8 H 0.4716 0.8766 0.1629 0.028 Uiso 1 1 calc R U
H9 H 0.3154 0.9414 0.1220 0.028 Uiso 1 1 calc R U
C19 C -0.2401(2) 0.60017(17) 0.27232(9) 0.0162(3) Uani 1 1 d . .
H12 H -0.2500 0.5081 0.2415 0.019 Uiso 1 1 calc R U
C20 C -0.3409(2) 0.60127(18) 0.34099(10) 0.0184(3) Uani 1 1 d . .
H11 H -0.4195 0.5085 0.3574 0.022 Uiso 1 1 calc R U
C21 C 0.2088(2) 1.04896(16) 0.30036(9) 0.0158(3) Uani 1 1 d . .
C22 C 0.3265(2) 1.17377(17) 0.25163(10) 0.0203(3) Uani 1 1 d . .
H14 H 0.3132 1.1351 0.1920 0.030 Uiso 1 1 calc R U
H13 H 0.4612 1.2074 0.2760 0.030 Uiso 1 1 calc R U
H15 H 0.2803 1.2588 0.2557 0.030 Uiso 1 1 calc R U
C23 C 0.2091(2) 1.12037(17) 0.38899(10) 0.0197(3) Uani 1 1 d . .
H18 H 0.1551 1.2007 0.3846 0.029 Uiso 1 1 calc R U
H16 H 0.3405 1.1627 0.4178 0.029 Uiso 1 1 calc R U
H17 H 0.1320 1.0436 0.4215 0.029 Uiso 1 1 calc R U
C24 C 0.3322(2) 0.46294(17) 0.11013(9) 0.0178(3) Uani 1 1 d . .
H24 H 0.4275 0.5574 0.1306 0.021 Uiso 1 1 calc R U
C25 C 0.3727(2) 0.36397(18) 0.05324(9) 0.0201(3) Uani 1 1 d . .
H25 H 0.4972 0.3902 0.0369 0.024 Uiso 1 1 calc R U
C26 C 0.2351(2) 0.22822(18) 0.02004(10) 0.0219(3) Uani 1 1 d . .
H26 H 0.2628 0.1620 -0.0197 0.026 Uiso 1 1 calc R U
C27 C 0.0556(2) 0.19068(17) 0.04596(10) 0.0204(3) Uani 1 1 d . .
H27 H -0.0401 0.0978 0.0231 0.024 Uiso 1 1 calc R U
loop_
_atom_site_aniso_label
_atom_site_aniso_U_11
_atom_site_aniso_U_22
_atom_site_aniso_U_33
_atom_site_aniso_U_23
_atom_site_aniso_U_13
_atom_site_aniso_U_12
O1 0.0196(5) 0.0172(6) 0.0307(6) 0.0033(5) 0.0062(5) 0.0088(5)
O2 0.0228(5) 0.0129(5) 0.0154(5) 0.0020(4) 0.0005(4) 0.0079(4)
N1 0.0129(6) 0.0123(6) 0.0225(6) -0.0020(5) 0.0032(5) 0.0036(5)
N2 0.0176(6) 0.0146(6) 0.0161(6) 0.0002(5) 0.0004(5) 0.0070(5)
C1 0.0172(7) 0.0140(7) 0.0295(8) -0.0015(6) -0.0030(6) 0.0052(6)
C2 0.0199(7) 0.0134(7) 0.0188(7) 0.0026(6) -0.0016(6) 0.0078(6)
C3 0.0204(7) 0.0127(7) 0.0147(7) 0.0025(5) 0.0002(5) 0.0090(6)
C4 0.0137(7) 0.0109(7) 0.0184(7) 0.0011(5) 0.0022(5) 0.0049(5)
C5 0.0139(7) 0.0118(7) 0.0156(7) 0.0011(5) 0.0026(5) 0.0046(5)
C6 0.0174(7) 0.0100(7) 0.0157(7) 0.0009(5) 0.0003(5) 0.0051(6)
C7 0.0119(6) 0.0165(7) 0.0156(7) 0.0011(5) -0.0016(5) 0.0074(6)
C8 0.0131(7) 0.0145(7) 0.0174(7) 0.0015(5) -0.0025(5) 0.0063(6)
C9 0.0158(7) 0.0202(8) 0.0206(7) -0.0019(6) -0.0004(6) 0.0102(6)
C10 0.0135(7) 0.0262(8) 0.0176(7) 0.0017(6) 0.0019(6) 0.0084(6)
C11 0.0097(6) 0.0133(7) 0.0187(7) 0.0025(5) 0.0021(5) 0.0046(5)
C12 0.0135(7) 0.0127(7) 0.0271(8) 0.0057(6) 0.0034(6) 0.0049(6)
C13 0.0144(7) 0.0220(8) 0.0253(8) 0.0126(6) 0.0053(6) 0.0068(6)
C14 0.0151(7) 0.0280(9) 0.0162(7) 0.0052(6) 0.0031(6) 0.0089(6)
C15 0.0139(7) 0.0173(7) 0.0195(7) 0.0016(6) 0.0019(5) 0.0066(6)
C16 0.0093(6) 0.0131(7) 0.0190(7) 0.0028(5) 0.0019(5) 0.0045(5)
C17 0.0140(7) 0.0111(7) 0.0158(7) 0.0012(5) 0.0010(5) 0.0044(5)
C18 0.0202(7) 0.0169(7) 0.0186(7) 0.0039(6) 0.0064(6) 0.0055(6)
C19 0.0131(7) 0.0148(7) 0.0208(7) 0.0005(6) -0.0006(5) 0.0059(6)
C20 0.0128(7) 0.0192(8) 0.0230(8) 0.0051(6) 0.0013(6) 0.0050(6)
C21 0.0166(7) 0.0108(7) 0.0195(7) 0.0007(5) -0.0008(6) 0.0050(6)
C22 0.0216(8) 0.0127(7) 0.0257(8) 0.0041(6) 0.0003(6) 0.0053(6)
C23 0.0233(8) 0.0144(7) 0.0219(8) -0.0021(6) -0.0010(6) 0.0091(6)
C24 0.0210(7) 0.0139(7) 0.0192(7) 0.0034(6) 0.0035(6) 0.0064(6)
C25 0.0266(8) 0.0196(8) 0.0189(7) 0.0071(6) 0.0078(6) 0.0119(7)
C26 0.0357(9) 0.0179(8) 0.0167(7) 0.0017(6) 0.0054(6) 0.0149(7)
C27 0.0289(8) 0.0132(7) 0.0181(7) -0.0009(6) -0.0029(6) 0.0083(6)
loop_
_atom_type_symbol
_atom_type_description
_atom_type_scat_dispersion_real
_atom_type_scat_dispersion_imag
_atom_type_scat_source
C C 0.0033 0.0016 'International Tables Vol C Tables 4.2.6.8 and 6.1.1.4'
H H 0.0000 0.0000 'International Tables Vol C Tables 4.2.6.8 and 6.1.1.4'
N N 0.0061 0.0033 'International Tables Vol C Tables 4.2.6.8 and 6.1.1.4'
O O 0.0106 0.0060 'International Tables Vol C Tables 4.2.6.8 and 6.1.1.4'
loop_
_geom_angle_atom_site_label_1
_geom_angle_atom_site_label_2
_geom_angle_atom_site_label_3
_geom_angle
C1 O1 H1 106.9(13)
C6 O2 N2 104.33(10)
C3 N1 C4 124.38(12)
C3 N1 H1A 117.8
C4 N1 H1A 117.8
C8 N2 O2 101.07(10)
C8 N2 C21 112.08(11)
O2 N2 C21 106.61(10)
O1 C1 C2 112.87(12)
O1 C1 H28 109.0
C2 C1 H28 109.0
O1 C1 H29 109.0
C2 C1 H29 109.0
H28 C1 H29 107.8
C27 C2 C3 119.31(14)
C27 C2 C1 120.40(14)
C3 C2 C1 120.25(13)
C24 C3 N1 123.91(13)
C24 C3 C2 118.61(13)
N1 C3 C2 117.48(13)
N1 C4 C11 113.90(12)
N1 C4 C5 115.53(12)
C11 C4 C5 104.34(11)
N1 C4 H22 107.6
C11 C4 H22 107.6
C5 C4 H22 107.6
C18 C5 C6 108.36(12)
C18 C5 C4 109.89(11)
C6 C5 C4 111.13(11)
C18 C5 C17 114.16(12)
C6 C5 C17 109.32(11)
C4 C5 C17 103.96(11)
O2 C6 C7 100.70(11)
O2 C6 C5 107.10(11)
C7 C6 C5 114.59(12)
O2 C6 H19 111.3
C7 C6 H19 111.3
C5 C6 H19 111.3
C19 C7 C8 120.06(13)
C19 C7 C6 134.38(13)
C8 C7 C6 105.55(12)
C9 C8 C7 122.39(14)
C9 C8 N2 126.99(13)
C7 C8 N2 110.62(12)
C8 C9 C10 117.35(14)
C8 C9 H10 121.3
C10 C9 H10 121.3
C20 C10 C9 120.79(14)
C20 C10 H2 119.6
C9 C10 H2 119.6
C12 C11 C16 121.87(14)
C12 C11 C4 126.63(13)
C16 C11 C4 111.15(12)
C13 C12 C11 119.29(14)
C13 C12 H21 120.4
C11 C12 H21 120.4
C12 C13 C14 119.76(14)
C12 C13 H4 120.1
C14 C13 H4 120.1
C13 C14 C15 120.80(14)
C13 C14 H5 119.6
C15 C14 H5 119.6
C14 C15 C16 119.97(14)
C14 C15 H6 120.0
C16 C15 H6 120.0
C11 C16 C15 118.18(13)
C11 C16 C17 110.35(12)
C15 C16 C17 131.04(13)
C16 C17 C21 119.98(12)
C16 C17 C5 103.37(11)
C21 C17 C5 114.14(11)
C16 C17 H20 106.1
C21 C17 H20 106.1
C5 C17 H20 106.1
C5 C18 H7 109.5
C5 C18 H8 109.5
H7 C18 H8 109.5
C5 C18 H9 109.5
H7 C18 H9 109.5
H8 C18 H9 109.5
C7 C19 C20 118.21(14)
C7 C19 H12 120.9
C20 C19 H12 120.9
C10 C20 C19 121.14(14)
C10 C20 H11 119.4
C19 C20 H11 119.4
N2 C21 C23 105.73(12)
N2 C21 C22 107.10(12)
C23 C21 C22 107.45(12)
N2 C21 C17 111.83(11)
C23 C21 C17 114.30(12)
C22 C21 C17 110.06(12)
C21 C22 H14 109.5
C21 C22 H13 109.5
H14 C22 H13 109.5
C21 C22 H15 109.5
H14 C22 H15 109.5
H13 C22 H15 109.5
C21 C23 H18 109.5
C21 C23 H16 109.5
H18 C23 H16 109.5
C21 C23 H17 109.5
H18 C23 H17 109.5
H16 C23 H17 109.5
C25 C24 C3 120.48(14)
C25 C24 H24 119.8
C3 C24 H24 119.8
C26 C25 C24 121.09(15)
C26 C25 H25 119.5
C24 C25 H25 119.5
C25 C26 C27 118.56(14)
C25 C26 H26 120.7
C27 C26 H26 120.7
C2 C27 C26 121.91(15)
C2 C27 H27 119.0
C26 C27 H27 119.0
loop_
_geom_bond_atom_site_label_1
_geom_bond_atom_site_label_2
_geom_bond_distance
O1 C1 1.433(2)
O1 H1 0.88(2)
O2 C6 1.4561(17)
O2 N2 1.4634(15)
N1 C3 1.3956(18)
N1 C4 1.4537(18)
N1 H1A 0.8800
N2 C8 1.4475(19)
N2 C21 1.5081(19)
C1 C2 1.504(2)
C1 H28 0.9900
C1 H29 0.9900
C2 C27 1.385(2)
C2 C3 1.416(2)
C3 C24 1.394(2)
C4 C11 1.501(2)
C4 C5 1.554(2)
C4 H22 1.0000
C5 C18 1.5344(19)
C5 C6 1.542(2)
C5 C17 1.5808(19)
C6 C7 1.509(2)
C6 H19 1.0000
C7 C19 1.383(2)
C7 C8 1.388(2)
C8 C9 1.381(2)
C9 C10 1.393(2)
C9 H10 0.9500
C10 C20 1.387(2)
C10 H2 0.9500
C11 C12 1.388(2)
C11 C16 1.394(2)
C12 C13 1.382(2)
C12 H21 0.9500
C13 C14 1.388(2)
C13 H4 0.9500
C14 C15 1.394(2)
C14 H5 0.9500
C15 C16 1.394(2)
C15 H6 0.9500
C16 C17 1.530(2)
C17 C21 1.574(2)
C17 H20 1.0000
C18 H7 0.9800
C18 H8 0.9800
C18 H9 0.9800
C19 C20 1.394(2)
C19 H12 0.9500
C20 H11 0.9500
C21 C23 1.526(2)
C21 C22 1.530(2)
C22 H14 0.9800
C22 H13 0.9800
C22 H15 0.9800
C23 H18 0.9800
C23 H16 0.9800
C23 H17 0.9800
C24 C25 1.391(2)
C24 H24 0.9500
C25 C26 1.381(2)
C25 H25 0.9500
C26 C27 1.386(2)
C26 H26 0.9500
C27 H27 0.9500
