#------------------------------------------------------------------------------
#$Date: 2018-10-27 01:27:29 +0300 (Sat, 27 Oct 2018) $
#$Revision: 211672 $
#$URL: file:///home/coder/svn-repositories/cod/cif/1/55/01/1550128.cif $
#------------------------------------------------------------------------------
#
# This file is available in the Crystallography Open Database (COD),
# http://www.crystallography.net/
#
# All data on this site have been placed in the public domain by the
# contributors.
#
data_1550128
loop_
_publ_author_name
'Yoshinari, Nobuto'
'Yamashita, Satoshi'
'Fukuda, Yosuke'
'Nakazawa, Yasuhiro'
'Konno, Takumi'
_publ_section_title
;
 Mobility of hydrated alkali metal ions in metallosupramolecular ionic
 crystals
;
_journal_name_full               'Chemical Science'
_journal_paper_doi               10.1039/C8SC04204G
_journal_year                    2019
_chemical_absolute_configuration rm
_chemical_formula_moiety         '(C36 H60 N12 O25 Rh4 S12 Zn4), 52.5(O)'
_chemical_formula_sum            'C36 H60 N12 O77.5 Rh4 S12 Zn4'
_chemical_formula_weight         2958.80
_chemical_name_systematic
;
 ?
;
_space_group_crystal_system      cubic
_space_group_IT_number           198
_space_group_name_Hall           'P 2ac 2ab 3'
_space_group_name_H-M_alt        'P 21 3'
_symmetry_space_group_name_Hall  'P 2ac 2ab 3'
_symmetry_space_group_name_H-M   'P 21 3'
_atom_sites_solution_hydrogens   geom
_audit_creation_method           SHELXL-2014
_audit_update_record
;
2017-10-10 deposited with the CCDC.
2018-10-22 downloaded from the CCDC.
;
_cell_angle_alpha                90
_cell_angle_beta                 90
_cell_angle_gamma                90
_cell_formula_units_Z            4
_cell_length_a                   23.550(3)
_cell_length_b                   23.550(3)
_cell_length_c                   23.550(3)
_cell_measurement_reflns_used    21463
_cell_measurement_temperature    100(2)
_cell_measurement_theta_max      30.07
_cell_measurement_theta_min      1.21
_cell_volume                     13061(3)
_computing_cell_refinement       'RAPID-AUTO (Rigaku Corporation)'
_computing_data_collection       'RAPID-AUTO (Rigaku Corporation)'
_computing_data_reduction        'RAPID-AUTO (Rigaku Corporation)'
_computing_molecular_graphics
'Yadokari-XG 2009 (Wakita Nemoto et al., 2009)'
_computing_publication_material
'Yadokari-XG 2009 (Wakita, Nemoto et al., 2009)'
_computing_structure_refinement  'SHELXL-2014/7 (Sheldrick, 2014)'
_computing_structure_solution    'SHELXS-2014 (Sheldrick, 2014)'
_diffrn_ambient_temperature      100(2)
_diffrn_detector_area_resol_mean 14.69
_diffrn_measured_fraction_theta_full 1.000
_diffrn_measured_fraction_theta_max 0.999
_diffrn_measurement_device_type  'Rigaku Mercury2CCD detector'
_diffrn_measurement_method       /w
_diffrn_radiation_monochromator  Si(311)
_diffrn_radiation_source         'SPring-8 BL02B1 bending magnet'
_diffrn_radiation_type           synchrotron
_diffrn_radiation_wavelength     0.701
_diffrn_reflns_av_R_equivalents  0.1028
_diffrn_reflns_av_unetI/netI     0.0865
_diffrn_reflns_Laue_measured_fraction_full 1.000
_diffrn_reflns_Laue_measured_fraction_max 0.999
_diffrn_reflns_limit_h_max       10
_diffrn_reflns_limit_h_min       -30
_diffrn_reflns_limit_k_max       30
_diffrn_reflns_limit_k_min       -25
_diffrn_reflns_limit_l_max       15
_diffrn_reflns_limit_l_min       -30
_diffrn_reflns_number            44235
_diffrn_reflns_point_group_measured_fraction_full 1.000
_diffrn_reflns_point_group_measured_fraction_max 1.000
_diffrn_reflns_theta_full        24.872
_diffrn_reflns_theta_max         27.491
_diffrn_reflns_theta_min         1.206
_exptl_absorpt_coefficient_mu    1.434
_exptl_absorpt_correction_T_max  1.0000
_exptl_absorpt_correction_T_min  0.5369
_exptl_absorpt_correction_type   multi-scans
_exptl_absorpt_process_details   'ABSCOR (Rigaku, 1995)'
_exptl_crystal_colour            yellow
_exptl_crystal_density_diffrn    1.505
_exptl_crystal_description       block
_exptl_crystal_F_000             5888
_exptl_crystal_size_max          0.100
_exptl_crystal_size_mid          0.080
_exptl_crystal_size_min          0.080
_refine_diff_density_max         0.751
_refine_diff_density_min         -0.531
_refine_diff_density_rms         0.151
_refine_ls_abs_structure_details
;
 Flack x determined using 3373 quotients [(I+)-(I-)]/[(I+)+(I-)]
 (Parsons, Flack and Wagner, Acta Cryst. B69 (2013) 249-259).
;
_refine_ls_abs_structure_Flack   0.041(12)
_refine_ls_extinction_method     none
_refine_ls_goodness_of_fit_ref   1.044
_refine_ls_hydrogen_treatment    constr
_refine_ls_matrix_type           full
_refine_ls_number_parameters     448
_refine_ls_number_reflns         10421
_refine_ls_number_restraints     61
_refine_ls_restrained_S_all      1.056
_refine_ls_R_factor_all          0.0773
_refine_ls_R_factor_gt           0.0599
_refine_ls_shift/su_max          0.001
_refine_ls_shift/su_mean         0.000
_refine_ls_structure_factor_coef Fsqd
_refine_ls_weighting_details
'w=1/[\s^2^(Fo^2^)+(0.0936P)^2^+3.4786P] where P=(Fo^2^+2Fc^2^)/3'
_refine_ls_weighting_scheme      calc
_refine_ls_wR_factor_gt          0.1480
_refine_ls_wR_factor_ref         0.1603
_reflns_Friedel_coverage         0.868
_reflns_Friedel_fraction_full    1.000
_reflns_Friedel_fraction_max     1.000
_reflns_number_gt                8522
_reflns_number_total             10421
_reflns_threshold_expression     'I > 2\s(I)'
_cod_data_source_file            c8sc04204g2.cif
_cod_data_source_block           Li6-1
_cod_original_cell_volume        13061(5)
_cod_original_formula_sum        'C36 H60 N12 O77.50 Rh4 S12 Zn4'
_cod_database_code               1550128
_shelx_space_group_comment
;
The symmetry employed for this shelxl refinement is uniquely defined
by the following loop, which should always be used as a source of
symmetry information in preference to the above space-group names.
They are only intended as comments.
;
_shelx_estimated_absorpt_t_min   0.870
_shelx_estimated_absorpt_t_max   0.894
_shelxl_version_number           2014-3
_shelx_res_file
;
TITL yado
REM  Yadorkari-X generated
CELL 0.70100 23.5502 23.5502 23.5502 90.0000 90.0000 90.0000
ZERR 4.0 0.0033 0.0033 0.0033 0.0000 0.0000 0.0000
LATT -1
SYMM 1/2-X, -Y, 1/2+Z
SYMM 1/2+X, 1/2-Y, -Z
SYMM -X, 1/2+Y, 1/2-Z
SYMM +Z, +X, +Y
SYMM +Y, +Z, +X
SYMM 1/2-Z, -X, 1/2+Y
SYMM -Y, 1/2+Z, 1/2-X
SYMM 1/2+Z, 1/2-X, -Y
SYMM 1/2-Y, -Z, 1/2+X
SYMM -Z, 1/2+X, 1/2-Y
SYMM 1/2+Y, 1/2-Z, -X
REM  SPGR P213 cubic
SFAC C H O N Li Zn Rh S
DISP C 0.003 0.0016 11.
DISP H 0. 0. 0.7
DISP O 0.0105 0.0059 30.9
DISP N 0.0059 0.0032 18.8
DISP Li 0.0003 0.0001 2.2
DISP Zn 0.2985 1.4039 5643.1
DISP Rh -1.134 0.9005 3789.9
DISP S 0.1221 0.1211 503.7
UNIT 144 240 310 48 0 16 16 48
SIZE 0.10 0.08 0.08
TEMP -173.0
L.S. 100
FMAP 2
PLAN -100
ACTA
CONF
HTAB
LIST 4
BOND $H
OMIT -10.000000 55.000000
EQIV $1 +Y, +Z, +X
EQIV $2 1-Z, -1/2+X, 1/2-Y
EQIV $3 1/2+Y, 1/2-Z, 1-X
EQIV $4 -1/2-Z, 1/2-X, 1-Y
EQIV $5 1/2-Y, 1-Z, 1/2+X

DFIX -2.55 0.01 O4 O23 O4 O24 O25 O28 O11 O28
DFIX -2.60 0.01 O29 O29_$4 O29 O29_$5 O29_$4 O29_$5

ISOR 0.05 0.05 O2
ISOR 0.05 0.05 O15
ISOR 0.05 0.05 O19
ISOR 0.05 0.05 O22
ISOR 0.05 0.05 O23
ISOR 0.05 0.05 O24
ISOR 0.05 0.05 O25
ISOR 0.05 0.05 O26
ISOR 0.05 0.05 O27A
ISOR 0.05 0.05 O28
ISOR 0.05 0.05 O29
HTAB N1 O10
HTAB N1 O19
HTAB N2 O24
HTAB N1 O10
HTAB N1 O19
HTAB N2 O24
HTAB N2 O3_$1
HTAB N3 O12
HTAB N3 O2_$1
HTAB N3 O3_$1
HTAB N4 O14
HTAB N4 O2_$1
HTAB C1 O15_$2
HTAB C1 S2
HTAB C4 S4_$2
HTAB C7 S3_$3
HTAB C8 O24
HTAB C10 S1_$3

WGHT    0.093600    3.478600
FVAR       0.58873
RH1   7    0.647294    0.147294    0.352706    10.33333    0.02553    0.02553 =
         0.02553   -0.00224   -0.00224    0.00224
RH2   7    0.407916    0.137124    0.503438    11.00000    0.02581    0.04108 =
         0.04577   -0.01228    0.00338    0.00767
ZN1   6    0.504185    0.071070    0.386571    11.00000    0.02494    0.02434 =
         0.02804   -0.00465   -0.00627    0.00304
ZN2   6    0.498597   -0.001403    0.501403    10.33333    0.03031    0.03031 =
         0.03031   -0.00113   -0.00113    0.00113
S1    8    0.567211    0.101647    0.316518    11.00000    0.02936    0.02626 =
         0.02435   -0.00238   -0.00742    0.00460
S2    8    0.446364    0.147162    0.412972    11.00000    0.03324    0.03741 =
         0.03975   -0.00682   -0.00197    0.01346
S3    8    0.407524    0.037826    0.503333    11.00000    0.03052    0.04145 =
         0.05602   -0.00505    0.00378    0.00022
S4    8    0.494652    0.145167    0.550463    11.00000    0.03181    0.04777 =
         0.03789   -0.01606    0.00307    0.00510
O1    3    0.547024    0.047024    0.452976    10.33333    0.02248    0.02248 =
         0.02248   -0.00019   -0.00019    0.00019
O2    3    0.558120    0.297341    0.250780    11.00000    0.33716    0.04956 =
         0.25522    0.02045   -0.22874    0.01807
O3    3    0.528478    0.248332    0.188418    11.00000    0.34245    0.10193 =
         0.17972    0.01721   -0.16722    0.07253
O4    3    0.242317    0.117409    0.393980    11.00000    0.15690    0.36930 =
         0.24575    0.14463   -0.13265   -0.13247
O5    3    0.269244    0.173107    0.329556    11.00000    0.10659    0.32115 =
         0.21795    0.12551   -0.10206   -0.02128
O6    3    0.325031    0.102931    0.685011    11.00000    0.37614    0.20696 =
         0.11877   -0.05541    0.15428   -0.16010
O7    3    0.295248    0.020694    0.662303    11.00000    0.15481    0.13378 =
         0.16057    0.02750    0.10978   -0.00861
O8    3    0.416469    0.339860    0.521176    11.00000    0.15929    0.05952 =
         0.40172   -0.00026   -0.10961    0.00582
O9    3    0.474403    0.335785    0.590730    11.00000    0.18354    0.10925 =
         0.39729   -0.15100   -0.15264    0.05492
N1    4    0.618664    0.218360    0.306808    11.00000    0.04562    0.02729 =
         0.03694    0.00726   -0.00756   -0.00137
AFIX  23
H1    2    0.601897    0.243290    0.331107    11.00000   -1.20000
H2    2    0.648938    0.236087    0.290610    11.00000   -1.20000
AFIX   0
N2    4    0.329385    0.135319    0.461494    11.00000    0.02837    0.04673 =
         0.07180   -0.00676   -0.00021    0.01391
AFIX  23
H3    2    0.317186    0.098717    0.459360    11.00000   -1.20000
H4    2    0.303595    0.155114    0.482379    11.00000   -1.20000
AFIX   0
N3    4    0.367083    0.129912    0.581757    11.00000    0.03691    0.07557 =
         0.05799   -0.01386    0.01484    0.00744
AFIX  23
H5    2    0.392569    0.137068    0.609906    11.00000   -1.20000
H6    2    0.339293    0.156671    0.583934    11.00000   -1.20000
AFIX   0
N4    4    0.405071    0.226530    0.510080    11.00000    0.03576    0.04415 =
         0.06626   -0.01874    0.00919    0.01575
AFIX  23
H7    2    0.414553    0.241887    0.475914    11.00000   -1.20000
H8    2    0.368847    0.237294    0.518148    11.00000   -1.20000
AFIX   0
C1    1    0.532537    0.165730    0.287199    11.00000    0.04228    0.03807 =
         0.04034    0.00517   -0.01012    0.01182
AFIX  23
H9    2    0.504517    0.154850    0.257811    11.00000   -1.20000
H10   2    0.512426    0.186528    0.317698    11.00000   -1.20000
AFIX   0
C2    1    0.577542    0.202343    0.261888    11.00000    0.06596    0.03217 =
         0.03379    0.00251   -0.00470    0.01499
AFIX  13
H11   2    0.598087    0.179816    0.232333    11.00000   -1.20000
AFIX   0
C3    1    0.551423    0.254388    0.233439    11.00000    0.09080    0.03879 =
         0.04166    0.01084   -0.02510    0.00688
C4    1    0.381405    0.132784    0.372123    11.00000    0.04092    0.06388 =
         0.05690   -0.00521   -0.01662    0.01739
AFIX  23
H12   2    0.384041    0.150221    0.333963    11.00000   -1.20000
H13   2    0.375960    0.091354    0.367533    11.00000   -1.20000
AFIX   0
C5    1    0.331385    0.158668    0.405470    11.00000    0.03649    0.07494 =
         0.07523   -0.00124   -0.01294    0.02063
AFIX  13
H14   2    0.337914    0.200494    0.408783    11.00000   -1.20000
AFIX   0
C6    1    0.275916    0.149275    0.372241    11.00000    0.05569    0.09091 =
         0.12595    0.02464   -0.01253    0.01482
C7    1    0.384043    0.027874    0.576058    11.00000    0.04989    0.06638 =
         0.07224    0.00418    0.02580   -0.00665
AFIX  23
H15   2    0.366651   -0.010165    0.580271    11.00000   -1.20000
H16   2    0.417001    0.030196    0.602050    11.00000   -1.20000
AFIX   0
C8    1    0.341443    0.072815    0.591258    11.00000    0.04075    0.07127 =
         0.08273   -0.00787    0.01919   -0.01222
AFIX  13
H17   2    0.308056    0.068773    0.565334    11.00000   -1.20000
AFIX   0
C9    1    0.320502    0.065182    0.653071    11.00000    0.10213    0.10445 =
         0.12852   -0.02439    0.08644   -0.02575
C10   1    0.501036    0.223498    0.546086    11.00000    0.03500    0.04259 =
         0.08053   -0.03478    0.00714    0.00238
AFIX  23
H18   2    0.526398    0.237598    0.576503    11.00000   -1.20000
H19   2    0.517412    0.234557    0.508982    11.00000   -1.20000
AFIX   0
C11   1    0.442245    0.249047    0.552760    11.00000    0.04654    0.05767 =
         0.09135   -0.04527   -0.00015    0.02007
AFIX  13
H20   2    0.427157    0.237429    0.590712    11.00000   -1.20000
AFIX   0
C12   1    0.446645    0.313593    0.551954    11.00000    0.08003    0.07896 =
         0.26312   -0.09598   -0.05361    0.05307
O10   3    0.547514    0.303339    0.376487    11.00000    0.56891    0.18370 =
         0.19455    0.09346    0.18847    0.26535
O11   3    0.297206   -0.005882    0.230215    11.00000    0.19015    0.21080 =
         0.30061    0.01085   -0.15185   -0.01289
O12   3    0.440014    0.160530    0.691294    11.00000    0.18318    0.50890 =
         0.08628    0.02402   -0.00944   -0.09271
O13   3    0.407393    0.407393    0.407393    10.33333    0.40171    0.40171 =
         0.40171    0.28653    0.28653    0.28653
O14   3    0.426481    0.290651    0.398532    11.00000    0.33870    0.09041 =
         0.41316    0.05902    0.19019    0.05010
O15   3    0.642973    0.297656    0.585398    11.00000    0.39152    0.36172 =
         0.24136   -0.16919   -0.00283   -0.16539
O16   3    0.583490    0.341459    0.480521    11.00000    0.25131    0.16978 =
         0.34203    0.11899    0.02119    0.00655
O17   3    0.178677    0.160693    0.257623    11.00000    0.24505    0.22696 =
         0.25476   -0.06453   -0.14891    0.00457
O18   3    0.674489    0.387569    0.405642    11.00000    0.25715    0.13222 =
         0.52073   -0.02034   -0.16340    0.06954
O19   3    0.693465    0.323144    0.287794    11.00000    0.50874    0.52674 =
         0.47240    0.09740    0.05135   -0.24024
O20   3    0.117474    0.117474    0.117474    10.33333    0.29380    0.29380 =
         0.29380   -0.04110   -0.04110   -0.04110
O21   3    0.367131    0.263302    0.297440    11.00000    1.54410    0.24112 =
         0.16538    0.09726   -0.12510   -0.18735
PART 1
O22A  3    0.354823    0.045463    0.930023    10.33330    0.16447    0.15788 =
         0.69533   -0.06604   -0.13479   -0.01596
PART 0
O23   3    0.160502    0.050035    0.357607    11.00000    0.30516    0.48625 =
         0.29779   -0.01821   -0.09706   -0.11511
O24   3    0.247377    0.043841    0.473510    11.00000    0.39303    0.36528 =
         0.49855    0.20881   -0.24023   -0.26726
O25   3    0.031350    0.052870    0.256215    11.00000    0.34922    0.55837 =
         0.36602   -0.05802   -0.16939    0.16151
O26   3    0.319396    0.100486    0.234239    11.00000    0.27453    0.24518 =
         0.38798   -0.14311    0.03607    0.01181
PART 1
O27A  3    0.428039    0.461700    0.506178    10.50000    0.26605    0.26542 =
         0.33968   -0.02863   -0.11274   -0.10617
PART 0
O28   3    0.135370    0.060257    0.215477    11.00000    0.40594    0.41934 =
         0.48086   -0.15383    0.05515    0.04395
O29   3    0.375554    0.204097    0.799230    11.00000    0.57674    0.21727 =
         0.40393   -0.16759    0.07704   -0.06274

HKLF 4 1 1 0 0 0 1 0 0 0 1

REM  yado
REM R1 =  0.0599 for    8522 Fo > 4sig(Fo)  and  0.0773 for all   10421 data
REM    448 parameters refined using     61 restraints

END

WGHT      0.0936      3.2965

REM Instructions for potential hydrogen bonds
HTAB N1 O10
HTAB N1 O19
HTAB N2 O24
HTAB N2 O3_$1
HTAB N3 O12
HTAB N3 O2_$1
HTAB N3 O3_$1
HTAB N4 O14
HTAB N4 O2_$1
HTAB C1 O15_$2
HTAB C1 S2
HTAB C4 S4_$2
HTAB C7 S3_$3
HTAB C8 O24
HTAB C10 S1_$3

REM Highest difference peak  0.751,  deepest hole -0.531,  1-sigma level  0.151
Q1    1   0.3713  0.0481  0.0708  11.00000  0.05    0.75
Q2    1   0.3911 -0.0065  0.0578  11.00000  0.05    0.72
Q3    1   0.4522  0.0768 -0.0070  11.00000  0.05    0.71
Q4    1   0.2997  0.1804 -0.0489  11.00000  0.05    0.69
Q5    1   0.4997  0.2632  0.2297  11.00000  0.05    0.65
Q6    1   0.4420  0.1003 -0.0037  11.00000  0.05    0.64
Q7    1   0.6259  0.1259  0.3741  10.33333  0.05    0.63
Q8    1   0.4065 -0.0107  0.0500  11.00000  0.05    0.63
Q9    1   0.3327  0.0506  0.1977  11.00000  0.05    0.63
Q10   1   0.6617  0.3602  0.3034  11.00000  0.05    0.62
Q11   1   0.6305  0.2962  0.5712  11.00000  0.05    0.60
Q12   1   0.7378  0.2378  0.2622  10.33333  0.05    0.59
Q13   1   0.4095  0.2862  0.0022  11.00000  0.05    0.58
Q14   1   0.6887  0.2809  0.2216  11.00000  0.05    0.58
Q15   1   0.4213  0.2980  0.0032  11.00000  0.05    0.57
Q16   1   0.4108  0.0712  0.0699  11.00000  0.05    0.56
Q17   1   0.4169  0.0656  0.0590  11.00000  0.05    0.55
Q18   1   0.6681  0.1681  0.3319  10.33333  0.05    0.54
Q19   1   0.3947  0.0688 -0.0193  11.00000  0.05    0.54
Q20   1   0.3791  0.0115 -0.0243  11.00000  0.05    0.53
Q21   1   0.4165  0.2825  0.0189  11.00000  0.05    0.53
Q22   1   0.4286  0.0497  0.0499  11.00000  0.05    0.53
Q23   1   0.4210  0.3280  0.5382  11.00000  0.05    0.51
Q24   1   0.4987  0.2068  0.0812  11.00000  0.05    0.51
Q25   1   0.4201  0.0306 -0.0016  11.00000  0.05    0.51
Q26   1   0.7511  0.2719  0.2875  11.00000  0.05    0.50
Q27   1   0.4328 -0.0395  0.0424  11.00000  0.05    0.50
Q28   1   0.4239  0.0919  0.0302  11.00000  0.05    0.49
Q29   1   0.3097  0.3027 -0.0011  11.00000  0.05    0.49
Q30   1   0.4503 -0.0249  0.0289  11.00000  0.05    0.49
Q31   1   0.1578  0.1243  0.3002  11.00000  0.05    0.49
Q32   1   0.3901  0.1433 -0.0675  11.00000  0.05    0.49
Q33   1   0.4924  0.2057  0.0692  11.00000  0.05    0.48
Q34   1   0.6042 -0.1042  0.1042  10.33333  0.05    0.48
Q35   1   0.4279  0.0414 -0.0043  11.00000  0.05    0.48
Q36   1   0.5989  0.3358  0.3665  11.00000  0.05    0.48
Q37   1   0.4885  0.0080  0.0685  11.00000  0.05    0.47
Q38   1   0.4092  0.2604  0.3035  11.00000  0.05    0.47
Q39   1   0.3538  0.1396  0.4984  11.00000  0.05    0.47
Q40   1   0.4064  0.1883  0.5015  11.00000  0.05    0.47
Q41   1   0.5803  0.2954  0.2323  11.00000  0.05    0.46
Q42   1   0.2808  0.2399  0.3256  11.00000  0.05    0.46
Q43   1   0.6742  0.1678  0.3714  11.00000  0.05    0.46
Q44   1   0.2617  0.1152  0.3459  11.00000  0.05    0.45
Q45   1   0.4166  0.2728  0.3134  11.00000  0.05    0.45
Q46   1   0.4462  0.3108  0.3291  11.00000  0.05    0.45
Q47   1   0.4973  0.4973  0.4973  10.33333  0.05    0.45
Q48   1   0.6798  0.3408  0.2301  11.00000  0.05    0.45
Q49   1   0.1392  0.0954  0.3367  11.00000  0.05    0.45
Q50   1   0.3744  0.2072 -0.0699  11.00000  0.05    0.45
Q51   1   0.6315  0.1487  0.4017  11.00000  0.05    0.44
Q52   1   0.2655  0.2576  0.3174  11.00000  0.05    0.44
Q53   1   0.4022  0.2415  0.2894  11.00000  0.05    0.44
Q54   1   0.3713  0.1158  0.5014  11.00000  0.05    0.44
Q55   1   0.3720  0.1280 -0.1280  10.33333  0.05    0.44
Q56   1   0.4620  0.1513  0.0301  11.00000  0.05    0.44
Q57   1   0.5193  0.2874  0.2601  11.00000  0.05    0.43
Q58   1   0.3880  0.1192 -0.0157  11.00000  0.05    0.43
Q59   1   0.2879  0.2519  0.2770  11.00000  0.05    0.43
Q60   1   0.4713  0.0910  0.0279  11.00000  0.05    0.42
Q61   1   0.4521  0.3069  0.4086  11.00000  0.05    0.42
Q62   1   0.4418  0.3327  0.5573  11.00000  0.05    0.42
Q63   1   0.3800  0.1097  0.4919  11.00000  0.05    0.42
Q64   1   0.3677  0.2987 -0.0066  11.00000  0.05    0.42
Q65   1   0.4603  0.0872  0.0406  11.00000  0.05    0.42
Q66   1   0.4319  0.1172 -0.0829  11.00000  0.05    0.41
Q67   1   0.6204  0.1749  0.3727  11.00000  0.05    0.41
Q68   1   0.4497  0.1181 -0.0482  11.00000  0.05    0.41
Q69   1   0.4600  0.0513  0.0717  11.00000  0.05    0.41
Q70   1   0.2867  0.1767  0.0181  11.00000  0.05    0.41
Q71   1   0.4192  0.1632  0.5283  11.00000  0.05    0.40
Q72   1   0.4857  0.3228  0.3656  11.00000  0.05    0.40
Q73   1   0.3725 -0.0375  0.0524  11.00000  0.05    0.40
Q74   1   0.4236  0.1459  0.0477  11.00000  0.05    0.40
Q75   1   0.3557  0.2201 -0.1204  11.00000  0.05    0.40
Q76   1   0.3824  0.1577  0.4805  11.00000  0.05    0.40
Q77   1   0.4252  0.1602  0.4806  11.00000  0.05    0.40
Q78   1   0.0491 -0.0038  0.2713  11.00000  0.05    0.40
Q79   1   0.4502 -0.0599  0.0636  11.00000  0.05    0.40
Q80   1   0.3710  0.1176 -0.0397  11.00000  0.05    0.39
Q81   1   0.3824  0.2728 -0.0257  11.00000  0.05    0.39
Q82   1   0.5293  0.0490  0.4083  11.00000  0.05    0.39
Q83   1   0.4684  0.1413  0.0374  11.00000  0.05    0.39
Q84   1   0.3617  0.1383 -0.1383  10.33333  0.05    0.39
Q85   1   0.4768  0.3130  0.3599  11.00000  0.05    0.39
Q86   1   0.3625  0.0796 -0.0335  11.00000  0.05    0.39
Q87   1   0.3282  0.2981  0.2881  11.00000  0.05    0.39
Q88   1   0.5106  0.1749  0.0996  11.00000  0.05    0.38
Q89   1   0.2193  0.1191  0.3857  11.00000  0.05    0.38
Q90   1   0.4750  0.0475  0.3674  11.00000  0.05    0.38
Q91   1   0.3035  0.1534 -0.0312  11.00000  0.05    0.38
Q92   1   0.0445  0.0593  0.2684  11.00000  0.05    0.38
Q93   1   0.3832  0.1105 -0.0342  11.00000  0.05    0.38
Q94   1   0.5039  0.1971  0.1296  11.00000  0.05    0.38
Q95   1   0.5514  0.2596  0.1854  11.00000  0.05    0.38
Q96   1   0.2662  0.1526  0.3241  11.00000  0.05    0.38
Q97   1   0.5395 -0.0575  0.0894  11.00000  0.05    0.38
Q98   1   0.4418  0.1405  0.0061  11.00000  0.05    0.38
Q99   1   0.3596  0.0489  0.1332  11.00000  0.05    0.38
Q100  1   0.5400  0.3569  0.6304  11.00000  0.05    0.37
;
_shelx_res_checksum              41052
loop_
_space_group_symop_operation_xyz
'x, y, z'
'-x+1/2, -y, z+1/2'
'x+1/2, -y+1/2, -z'
'-x, y+1/2, -z+1/2'
'z, x, y'
'y, z, x'
'-z+1/2, -x, y+1/2'
'-y, z+1/2, -x+1/2'
'z+1/2, -x+1/2, -y'
'-y+1/2, -z, x+1/2'
'-z, x+1/2, -y+1/2'
'y+1/2, -z+1/2, -x'
loop_
_atom_site_label
_atom_site_type_symbol
_atom_site_fract_x
_atom_site_fract_y
_atom_site_fract_z
_atom_site_U_iso_or_equiv
_atom_site_adp_type
_atom_site_occupancy
_atom_site_site_symmetry_order
_atom_site_calc_flag
_atom_site_refinement_flags_posn
_atom_site_refinement_flags_adp
_atom_site_refinement_flags_occupancy
_atom_site_disorder_assembly
_atom_site_disorder_group
Rh1 Rh 0.64729(3) 0.14729(3) 0.35271(3) 0.0255(2) Uani 1 3 d S T P . .
Rh2 Rh 0.40792(3) 0.13712(3) 0.50344(3) 0.0376(2) Uani 1 1 d . . . . .
Zn1 Zn 0.50418(4) 0.07107(4) 0.38657(4) 0.0258(2) Uani 1 1 d . . . . .
Zn2 Zn 0.49860(4) -0.00140(4) 0.50140(4) 0.0303(3) Uani 1 3 d S T P . .
S1 S 0.56721(9) 0.10165(8) 0.31652(8) 0.0267(4) Uani 1 1 d . . . . .
S2 S 0.44636(9) 0.14716(10) 0.41297(10) 0.0368(5) Uani 1 1 d . . . . .
S3 S 0.40752(10) 0.03783(11) 0.50333(12) 0.0427(6) Uani 1 1 d . . . . .
S4 S 0.49465(10) 0.14517(11) 0.55046(10) 0.0392(5) Uani 1 1 d . . . . .
O1 O 0.5470(2) 0.0470(2) 0.4530(2) 0.0225(19) Uani 1 3 d S T P . .
O2 O 0.5581(11) 0.2973(5) 0.2508(10) 0.214(13) Uani 1 1 d . U . . .
O3 O 0.5285(11) 0.2483(7) 0.1884(9) 0.208(12) Uani 1 1 d . . . . .
O4 O 0.2423(10) 0.1174(15) 0.3940(13) 0.257(18) Uani 1 1 d D . . . .
O5 O 0.2692(8) 0.1731(13) 0.3296(11) 0.215(13) Uani 1 1 d . . . . .
O6 O 0.3250(13) 0.1029(11) 0.6850(8) 0.234(16) Uani 1 1 d . . . . .
O7 O 0.2952(8) 0.0207(7) 0.6623(8) 0.150(7) Uani 1 1 d . . . . .
O8 O 0.4165(9) 0.3399(6) 0.5212(13) 0.207(13) Uani 1 1 d . . . . .
O9 O 0.4744(9) 0.3358(8) 0.5907(14) 0.230(15) Uani 1 1 d . . . . .
N1 N 0.6187(4) 0.2184(3) 0.3068(3) 0.0366(17) Uani 1 1 d . . . . .
H1 H 0.6019 0.2433 0.3311 0.044 Uiso 1 1 calc R U . . .
H2 H 0.6489 0.2361 0.2906 0.044 Uiso 1 1 calc R U . . .
N2 N 0.3294(3) 0.1353(4) 0.4615(4) 0.049(2) Uani 1 1 d . . . . .
H3 H 0.3172 0.0987 0.4594 0.059 Uiso 1 1 calc R U . . .
H4 H 0.3036 0.1551 0.4824 0.059 Uiso 1 1 calc R U . . .
N3 N 0.3671(4) 0.1299(5) 0.5818(4) 0.057(3) Uani 1 1 d . . . . .
H5 H 0.3926 0.1371 0.6099 0.068 Uiso 1 1 calc R U . . .
H6 H 0.3393 0.1567 0.5839 0.068 Uiso 1 1 calc R U . . .
N4 N 0.4051(4) 0.2265(4) 0.5101(4) 0.049(2) Uani 1 1 d . . . . .
H7 H 0.4146 0.2419 0.4759 0.058 Uiso 1 1 calc R U . . .
H8 H 0.3688 0.2373 0.5181 0.058 Uiso 1 1 calc R U . . .
C1 C 0.5325(4) 0.1657(4) 0.2872(4) 0.040(2) Uani 1 1 d . . . . .
H9 H 0.5045 0.1548 0.2578 0.048 Uiso 1 1 calc R U . . .
H10 H 0.5124 0.1865 0.3177 0.048 Uiso 1 1 calc R U . . .
C2 C 0.5775(5) 0.2023(4) 0.2619(4) 0.044(2) Uani 1 1 d . . . . .
H11 H 0.5981 0.1798 0.2323 0.053 Uiso 1 1 calc R U . . .
C3 C 0.5514(6) 0.2544(5) 0.2334(5) 0.057(3) Uani 1 1 d . . . . .
C4 C 0.3814(5) 0.1328(5) 0.3721(5) 0.054(3) Uani 1 1 d . . . . .
H12 H 0.3840 0.1502 0.3340 0.065 Uiso 1 1 calc R U . . .
H13 H 0.3760 0.0914 0.3675 0.065 Uiso 1 1 calc R U . . .
C5 C 0.3314(5) 0.1587(6) 0.4055(6) 0.062(3) Uani 1 1 d . . . . .
H14 H 0.3379 0.2005 0.4088 0.075 Uiso 1 1 calc R U . . .
C6 C 0.2759(7) 0.1493(8) 0.3722(10) 0.091(5) Uani 1 1 d . . . . .
C7 C 0.3840(5) 0.0279(6) 0.5761(6) 0.063(3) Uani 1 1 d . . . . .
H15 H 0.3667 -0.0102 0.5803 0.075 Uiso 1 1 calc R U . . .
H16 H 0.4170 0.0302 0.6021 0.075 Uiso 1 1 calc R U . . .
C8 C 0.3414(5) 0.0728(6) 0.5913(7) 0.065(3) Uani 1 1 d . . . . .
H17 H 0.3081 0.0688 0.5653 0.078 Uiso 1 1 calc R U . . .
C9 C 0.3205(9) 0.0652(9) 0.6531(10) 0.112(7) Uani 1 1 d . . . . .
C10 C 0.5010(4) 0.2235(4) 0.5461(6) 0.053(3) Uani 1 1 d . . . . .
H18 H 0.5264 0.2376 0.5765 0.063 Uiso 1 1 calc R U . . .
H19 H 0.5174 0.2346 0.5090 0.063 Uiso 1 1 calc R U . . .
C11 C 0.4422(5) 0.2490(6) 0.5528(7) 0.065(4) Uani 1 1 d . . . . .
H20 H 0.4272 0.2374 0.5907 0.078 Uiso 1 1 calc R U . . .
C12 C 0.4466(8) 0.3136(8) 0.5520(14) 0.141(12) Uani 1 1 d . . . . .
O10 O 0.5475(17) 0.3033(10) 0.3765(11) 0.32(2) Uani 1 1 d . . . . .
O11 O 0.2972(11) -0.0059(12) 0.2302(14) 0.234(13) Uani 1 1 d D . . . .
O12 O 0.4400(11) 0.1605(19) 0.6913(8) 0.259(17) Uani 1 1 d . . . . .
O13 O 0.407(3) 0.407(3) 0.407(3) 0.40(6) Uani 1 3 d S T P . .
O14 O 0.4265(15) 0.2907(8) 0.3985(17) 0.28(2) Uani 1 1 d . . . . .
O15 O 0.6430(19) 0.2977(17) 0.5854(16) 0.33(2) Uani 1 1 d . U . . .
O16 O 0.5835(14) 0.3415(12) 0.4805(16) 0.254(15) Uani 1 1 d . . . . .
O17 O 0.1787(13) 0.1607(13) 0.2576(12) 0.242(15) Uani 1 1 d . . . . .
O18 O 0.6745(14) 0.3876(10) 0.406(2) 0.30(2) Uani 1 1 d . . . . .
O19 O 0.693(3) 0.323(3) 0.288(3) 0.50(4) Uani 1 1 d . U . . .
O20 O 0.1175(15) 0.1175(15) 0.1175(15) 0.29(3) Uani 1 3 d S T P . .
O21 O 0.367(4) 0.2633(17) 0.2974(16) 0.65(9) Uani 1 1 d . . . . .
O22A O 0.355(3) 0.045(3) 0.930(7) 0.34(9) Uani 0.3333 1 d . . P A 1
O23 O 0.1605(19) 0.050(2) 0.3576(19) 0.36(3) Uani 1 1 d D U . . .
O24 O 0.2474(19) 0.0438(19) 0.474(2) 0.42(3) Uani 1 1 d D U . . .
O25 O 0.031(2) 0.053(3) 0.256(2) 0.42(3) Uani 1 1 d D U . . .
O26 O 0.3194(17) 0.1005(16) 0.2342(19) 0.30(2) Uani 1 1 d . U . . .
O27A O 0.428(3) 0.462(3) 0.506(3) 0.29(3) Uani 0.5 1 d . U P B 1
O28 O 0.135(3) 0.060(2) 0.215(3) 0.44(3) Uani 1 1 d D U . . .
O29 O 0.3756(15) 0.2041(15) 0.799(2) 0.40(3) Uani 1 1 d D U . . .
loop_
_atom_site_aniso_label
_atom_site_aniso_U_11
_atom_site_aniso_U_22
_atom_site_aniso_U_33
_atom_site_aniso_U_23
_atom_site_aniso_U_13
_atom_site_aniso_U_12
Rh1 0.0255(2) 0.0255(2) 0.0255(2) -0.0022(3) -0.0022(3) 0.0022(3)
Rh2 0.0258(3) 0.0411(4) 0.0458(4) -0.0123(3) 0.0034(3) 0.0077(3)
Zn1 0.0249(5) 0.0243(4) 0.0280(5) -0.0047(4) -0.0063(4) 0.0030(4)
Zn2 0.0303(3) 0.0303(3) 0.0303(3) -0.0011(4) -0.0011(4) 0.0011(4)
S1 0.0294(10) 0.0263(10) 0.0244(9) -0.0024(7) -0.0074(8) 0.0046(8)
S2 0.0332(11) 0.0374(12) 0.0397(12) -0.0068(10) -0.0020(9) 0.0135(9)
S3 0.0305(11) 0.0415(12) 0.0560(15) -0.0050(12) 0.0038(11) 0.0002(10)
S4 0.0318(11) 0.0478(13) 0.0379(11) -0.0161(10) 0.0031(9) 0.0051(11)
O1 0.0225(19) 0.0225(19) 0.0225(19) 0.000(2) 0.000(2) 0.000(2)
O2 0.34(3) 0.050(7) 0.26(2) 0.020(10) -0.23(2) 0.018(11)
O3 0.34(3) 0.102(11) 0.180(17) 0.017(11) -0.17(2) 0.073(15)
O4 0.157(18) 0.37(4) 0.25(3) 0.14(3) -0.133(19) -0.13(2)
O5 0.107(12) 0.32(3) 0.22(2) 0.13(2) -0.102(14) -0.021(15)
O6 0.38(4) 0.21(2) 0.119(13) -0.055(15) 0.15(2) -0.16(2)
O7 0.155(14) 0.134(13) 0.161(15) 0.027(11) 0.110(13) -0.009(11)
O8 0.159(16) 0.060(8) 0.40(4) 0.000(14) -0.11(2) 0.006(10)
O9 0.184(18) 0.109(12) 0.40(4) -0.151(19) -0.15(2) 0.055(12)
N1 0.046(5) 0.027(4) 0.037(4) 0.007(3) -0.008(4) -0.001(3)
N2 0.028(4) 0.047(5) 0.072(6) -0.007(5) 0.000(4) 0.014(4)
N3 0.037(4) 0.076(7) 0.058(6) -0.014(5) 0.015(4) 0.007(5)
N4 0.036(4) 0.044(5) 0.066(6) -0.019(4) 0.009(4) 0.016(4)
C1 0.042(5) 0.038(5) 0.040(5) 0.005(4) -0.010(4) 0.012(4)
C2 0.066(7) 0.032(5) 0.034(5) 0.003(4) -0.005(5) 0.015(5)
C3 0.091(9) 0.039(6) 0.042(6) 0.011(5) -0.025(6) 0.007(6)
C4 0.041(5) 0.064(7) 0.057(7) -0.005(6) -0.017(5) 0.017(5)
C5 0.036(6) 0.075(8) 0.075(8) -0.001(7) -0.013(6) 0.021(6)
C6 0.056(8) 0.091(12) 0.126(16) 0.025(11) -0.013(10) 0.015(9)
C7 0.050(7) 0.066(8) 0.072(8) 0.004(6) 0.026(6) -0.007(6)
C8 0.041(6) 0.071(8) 0.083(9) -0.008(7) 0.019(6) -0.012(6)
C9 0.102(13) 0.104(14) 0.129(17) -0.024(13) 0.086(13) -0.026(11)
C10 0.035(5) 0.043(5) 0.081(8) -0.035(5) 0.007(5) 0.002(5)
C11 0.047(6) 0.058(7) 0.091(9) -0.045(7) 0.000(6) 0.020(5)
C12 0.080(12) 0.079(12) 0.26(3) -0.096(17) -0.054(16) 0.053(10)
O10 0.57(6) 0.18(2) 0.19(2) 0.093(17) 0.19(3) 0.27(3)
O11 0.19(2) 0.21(3) 0.30(3) 0.01(2) -0.15(2) -0.013(19)
O12 0.18(2) 0.51(5) 0.086(11) 0.02(2) -0.009(12) -0.09(3)
O13 0.40(6) 0.40(6) 0.40(6) 0.29(7) 0.29(7) 0.29(7)
O14 0.34(4) 0.090(12) 0.41(5) 0.06(2) 0.19(4) 0.050(18)
O15 0.39(4) 0.36(4) 0.24(3) -0.17(3) 0.00(3) -0.17(3)
O16 0.25(3) 0.17(2) 0.34(4) 0.12(2) 0.02(3) 0.01(2)
O17 0.25(3) 0.23(3) 0.25(3) -0.06(2) -0.15(3) 0.00(2)
O18 0.26(3) 0.132(18) 0.52(6) -0.02(3) -0.16(4) 0.07(2)
O19 0.51(6) 0.53(6) 0.47(6) 0.10(5) 0.05(5) -0.24(5)
O20 0.29(3) 0.29(3) 0.29(3) -0.04(3) -0.04(3) -0.04(3)
O21 1.5(3) 0.24(4) 0.17(3) 0.10(3) -0.13(8) -0.19(9)
O22A 0.16(7) 0.16(6) 0.7(3) -0.07(10) -0.13(11) -0.02(5)
O23 0.31(4) 0.49(6) 0.30(4) -0.02(4) -0.10(3) -0.12(4)
O24 0.39(4) 0.37(4) 0.50(5) 0.21(4) -0.24(4) -0.27(4)
O25 0.35(5) 0.56(6) 0.37(5) -0.06(4) -0.17(4) 0.16(4)
O26 0.27(3) 0.25(3) 0.39(4) -0.14(3) 0.04(3) 0.01(3)
O27A 0.27(5) 0.27(5) 0.34(6) -0.03(5) -0.11(5) -0.11(4)
O28 0.41(5) 0.42(5) 0.48(6) -0.15(5) 0.06(5) 0.04(4)
O29 0.58(6) 0.22(3) 0.40(5) -0.17(3) 0.08(4) -0.06(4)
loop_
_atom_type_symbol
_atom_type_description
_atom_type_scat_dispersion_real
_atom_type_scat_dispersion_imag
_atom_type_scat_source
C C 0.0030 0.0016 'International Tables Vol C Tables 4.2.6.8 and 6.1.1.4'
H H 0.0000 0.0000 'International Tables Vol C Tables 4.2.6.8 and 6.1.1.4'
O O 0.0105 0.0059 'International Tables Vol C Tables 4.2.6.8 and 6.1.1.4'
N N 0.0059 0.0032 'International Tables Vol C Tables 4.2.6.8 and 6.1.1.4'
Li Li 0.0003 0.0001 'International Tables Vol C Tables 4.2.6.8 and 6.1.1.4'
Zn Zn 0.2985 1.4039 'International Tables Vol C Tables 4.2.6.8 and 6.1.1.4'
Rh Rh -1.1340 0.9005 'International Tables Vol C Tables 4.2.6.8 and 6.1.1.4'
S S 0.1221 0.1211 'International Tables Vol C Tables 4.2.6.8 and 6.1.1.4'
loop_
_geom_angle_atom_site_label_1
_geom_angle_atom_site_label_2
_geom_angle_atom_site_label_3
_geom_angle
_geom_angle_site_symmetry_1
_geom_angle_site_symmetry_3
N1 Rh1 N1 90.6(3) 12_556 11_645
N1 Rh1 N1 90.6(3) 12_556 .
N1 Rh1 N1 90.6(3) 11_645 .
N1 Rh1 S1 88.7(2) 12_556 11_645
N1 Rh1 S1 85.4(2) 11_645 11_645
N1 Rh1 S1 176.0(2) . 11_645
N1 Rh1 S1 176.0(2) 12_556 .
N1 Rh1 S1 88.7(2) 11_645 .
N1 Rh1 S1 85.4(2) . .
S1 Rh1 S1 95.23(7) 11_645 .
N1 Rh1 S1 85.4(2) 12_556 12_556
N1 Rh1 S1 176.0(2) 11_645 12_556
N1 Rh1 S1 88.7(2) . 12_556
S1 Rh1 S1 95.23(7) 11_645 12_556
S1 Rh1 S1 95.23(7) . 12_556
N3 Rh2 N2 90.5(4) . .
N3 Rh2 N4 90.1(4) . .
N2 Rh2 N4 91.6(4) . .
N3 Rh2 S2 175.4(3) . .
N2 Rh2 S2 85.1(3) . .
N4 Rh2 S2 88.8(3) . .
N3 Rh2 S4 89.5(3) . .
N2 Rh2 S4 176.5(3) . .
N4 Rh2 S4 84.9(3) . .
S2 Rh2 S4 94.92(8) . .
N3 Rh2 S3 85.3(3) . .
N2 Rh2 S3 88.6(3) . .
N4 Rh2 S3 175.3(3) . .
S2 Rh2 S3 95.86(10) . .
S4 Rh2 S3 94.89(9) . .
O1 Zn1 S1 109.2(3) . .
O1 Zn1 S2 108.17(8) . .
S1 Zn1 S2 108.81(9) . .
O1 Zn1 S4 108.6(2) . 11_645
S1 Zn1 S4 111.23(9) . 11_645
S2 Zn1 S4 110.81(9) . 11_645
O1 Zn2 S3 108.24(8) . 11_645
O1 Zn2 S3 108.24(8) . 12_556
S3 Zn2 S3 110.67(7) 11_645 12_556
O1 Zn2 S3 108.24(8) . .
S3 Zn2 S3 110.67(7) 11_645 .
S3 Zn2 S3 110.67(7) 12_556 .
C1 S1 Rh1 96.7(3) . .
C1 S1 Zn1 103.6(4) . .
Rh1 S1 Zn1 113.48(9) . .
C4 S2 Rh2 97.8(4) . .
C4 S2 Zn1 101.8(4) . .
Rh2 S2 Zn1 113.13(11) . .
C7 S3 Zn2 104.3(5) . .
C7 S3 Rh2 97.4(5) . .
Zn2 S3 Rh2 113.07(10) . .
C10 S4 Rh2 97.2(4) . .
C10 S4 Zn1 103.0(4) . 12_556
Rh2 S4 Zn1 112.79(9) . 12_556
Zn1 O1 Zn1 109.5(3) 12_556 11_645
Zn1 O1 Zn1 109.5(3) 12_556 .
Zn1 O1 Zn1 109.5(3) 11_645 .
Zn1 O1 Zn2 109.4(3) 12_556 .
Zn1 O1 Zn2 109.4(3) 11_645 .
Zn1 O1 Zn2 109.4(3) . .
C2 N1 Rh1 111.9(6) . .
C2 N1 H1 109.2 . .
Rh1 N1 H1 109.2 . .
C2 N1 H2 109.2 . .
Rh1 N1 H2 109.2 . .
H1 N1 H2 107.9 . .
C5 N2 Rh2 113.4(7) . .
C5 N2 H3 108.9 . .
Rh2 N2 H3 108.9 . .
C5 N2 H4 108.9 . .
Rh2 N2 H4 108.9 . .
H3 N2 H4 107.7 . .
C8 N3 Rh2 113.1(8) . .
C8 N3 H5 109.0 . .
Rh2 N3 H5 109.0 . .
C8 N3 H6 109.0 . .
Rh2 N3 H6 109.0 . .
H5 N3 H6 107.8 . .
C11 N4 Rh2 113.6(8) . .
C11 N4 H7 108.8 . .
Rh2 N4 H7 108.8 . .
C11 N4 H8 108.8 . .
Rh2 N4 H8 108.8 . .
H7 N4 H8 107.7 . .
C2 C1 S1 107.9(7) . .
C2 C1 H9 110.1 . .
S1 C1 H9 110.1 . .
C2 C1 H10 110.1 . .
S1 C1 H10 110.1 . .
H9 C1 H10 108.4 . .
N1 C2 C1 109.0(8) . .
N1 C2 C3 111.8(8) . .
C1 C2 C3 110.7(10) . .
N1 C2 H11 108.4 . .
C1 C2 H11 108.4 . .
C3 C2 H11 108.4 . .
O2 C3 O3 120.1(14) . .
O2 C3 C2 121.1(12) . .
O3 C3 C2 118.3(13) . .
C5 C4 S2 107.2(8) . .
C5 C4 H12 110.3 . .
S2 C4 H12 110.3 . .
C5 C4 H13 110.3 . .
S2 C4 H13 110.3 . .
H12 C4 H13 108.5 . .
N2 C5 C6 112.7(13) . .
N2 C5 C4 110.1(9) . .
C6 C5 C4 109.4(12) . .
N2 C5 H14 108.2 . .
C6 C5 H14 108.2 . .
C4 C5 H14 108.2 . .
O5 C6 O4 125(2) . .
O5 C6 C5 119.0(19) . .
O4 C6 C5 115.5(18) . .
C8 C7 S3 109.7(10) . .
C8 C7 H15 109.7 . .
S3 C7 H15 109.7 . .
C8 C7 H16 109.7 . .
S3 C7 H16 109.7 . .
H15 C7 H16 108.2 . .
N3 C8 C7 109.2(9) . .
N3 C8 C9 112.0(13) . .
C7 C8 C9 110.8(14) . .
N3 C8 H17 108.2 . .
C7 C8 H17 108.2 . .
C9 C8 H17 108.2 . .
O6 C9 O7 125(2) . .
O6 C9 C8 119.2(17) . .
O7 C9 C8 115(2) . .
C11 C10 S4 108.3(8) . .
C11 C10 H18 110.0 . .
S4 C10 H18 110.0 . .
C11 C10 H19 110.0 . .
S4 C10 H19 110.0 . .
H18 C10 H19 108.4 . .
N4 C11 C10 109.7(9) . .
N4 C11 C12 113.7(15) . .
C10 C11 C12 109.4(12) . .
N4 C11 H20 108.0 . .
C10 C11 H20 108.0 . .
C12 C11 H20 108.0 . .
O8 C12 O9 123.1(19) . .
O8 C12 C11 119.1(18) . .
O9 C12 C11 117(2) . .
loop_
_geom_bond_atom_site_label_1
_geom_bond_atom_site_label_2
_geom_bond_distance
_geom_bond_site_symmetry_2
Rh1 N1 2.103(7) 12_556
Rh1 N1 2.103(7) 11_645
Rh1 N1 2.103(7) .
Rh1 S1 2.332(2) 11_645
Rh1 S1 2.332(2) .
Rh1 S1 2.332(2) 12_556
Rh2 N3 2.087(9) .
Rh2 N2 2.097(9) .
Rh2 N4 2.112(9) .
Rh2 S2 2.327(3) .
Rh2 S4 2.331(3) .
Rh2 S3 2.339(3) .
Zn1 O1 1.945(3) .
Zn1 S1 2.333(2) .
Zn1 S2 2.335(2) .
Zn1 S4 2.335(2) 11_645
Zn2 O1 1.975(10) .
Zn2 S3 2.336(3) 11_645
Zn2 S3 2.336(3) 12_556
Zn2 S3 2.336(3) .
S1 C1 1.850(9) .
S2 C4 1.839(11) .
S3 C7 1.815(13) .
S4 C10 1.854(11) .
S4 Zn1 2.335(2) 12_556
O1 Zn1 1.945(3) 12_556
O1 Zn1 1.945(3) 11_645
O2 C3 1.102(17) .
O3 C3 1.20(2) .
O4 C6 1.20(3) .
O5 C6 1.16(3) .
O6 C9 1.17(2) .
O7 C9 1.22(2) .
O8 C12 1.19(3) .
O9 C12 1.24(3) .
N1 C2 1.483(13) .
N1 H1 0.9100 .
N1 H2 0.9100 .
N2 C5 1.430(17) .
N2 H3 0.9100 .
N2 H4 0.9100 .
N3 C8 1.491(17) .
N3 H5 0.9100 .
N3 H6 0.9100 .
N4 C11 1.435(16) .
N4 H7 0.9100 .
N4 H8 0.9100 .
C1 C2 1.491(16) .
C1 H9 0.9900 .
C1 H10 0.9900 .
C2 C3 1.526(14) .
C2 H11 1.0000 .
C4 C5 1.541(17) .
C4 H12 0.9900 .
C4 H13 0.9900 .
C5 C6 1.54(2) .
C5 H14 1.0000 .
C7 C8 1.502(19) .
C7 H15 0.9900 .
C7 H16 0.9900 .
C8 C9 1.55(2) .
C8 H17 1.0000 .
C10 C11 1.518(15) .
C10 H18 0.9900 .
C10 H19 0.9900 .
C11 C12 1.52(2) .
C11 H20 1.0000 .
loop_
_geom_hbond_atom_site_label_D
_geom_hbond_atom_site_label_H
_geom_hbond_atom_site_label_A
_geom_hbond_distance_DH
_geom_hbond_distance_HA
_geom_hbond_distance_DA
_geom_hbond_angle_DHA
_geom_hbond_site_symmetry_A
N1 H1 O10 0.91 2.19 3.083(19) 168.1 .
N1 H2 O19 0.91 2.30 3.06(5) 141.0 .
N2 H3 O24 0.91 2.12 2.91(3) 144.5 .
N1 H1 O10 0.91 2.19 3.083(19) 168.1 .
N1 H2 O19 0.91 2.30 3.06(5) 141.0 .
N2 H3 O24 0.91 2.12 2.91(3) 144.5 .
N2 H4 O3 0.91 1.87 2.774(16) 174.0 6
N3 H5 O12 0.91 2.29 3.18(2) 167.9 .
N3 H6 O2 0.91 2.50 3.33(2) 152.1 6
N3 H6 O3 0.91 2.62 3.36(2) 139.3 6
N4 H7 O14 0.91 2.17 3.07(3) 169.6 .
N4 H8 O2 0.91 1.96 2.836(15) 162.4 6
C1 H9 O15 0.99 2.50 3.46(3) 163.2 11_645
C1 H10 S2 0.99 2.88 3.617(11) 131.6 .
C4 H13 S4 0.99 2.88 3.650(12) 135.5 11_645
C7 H16 S3 0.99 2.96 3.716(14) 133.7 12_556
C8 H17 O24 1.00 2.66 3.61(4) 160.1 .
C10 H19 S1 0.99 2.93 3.691(11) 134.1 12_556
loop_
_geom_torsion_atom_site_label_1
_geom_torsion_atom_site_label_2
_geom_torsion_atom_site_label_3
_geom_torsion_atom_site_label_4
_geom_torsion
_geom_torsion_site_symmetry_1
Rh1 S1 C1 C2 39.3(7) .
Zn1 S1 C1 C2 155.5(6) .
Rh1 N1 C2 C1 50.3(9) .
Rh1 N1 C2 C3 173.1(8) .
S1 C1 C2 N1 -60.2(9) .
S1 C1 C2 C3 176.4(7) .
N1 C2 C3 O2 -10(3) .
C1 C2 C3 O2 112(2) .
N1 C2 C3 O3 162(2) .
C1 C2 C3 O3 -76(2) .
Rh2 S2 C4 C5 36.1(9) .
Zn1 S2 C4 C5 151.8(8) .
Rh2 N2 C5 C6 171.7(10) .
Rh2 N2 C5 C4 49.3(12) .
S2 C4 C5 N2 -57.2(13) .
S2 C4 C5 C6 178.4(11) .
N2 C5 C6 O5 169(2) .
C4 C5 C6 O5 -68(3) .
N2 C5 C6 O4 -10(3) .
C4 C5 C6 O4 113(3) .
Zn2 S3 C7 C8 153.1(8) .
Rh2 S3 C7 C8 36.9(10) .
Rh2 N3 C8 C7 47.2(14) .
Rh2 N3 C8 C9 170.3(12) .
S3 C7 C8 N3 -56.3(14) .
S3 C7 C8 C9 179.8(12) .
N3 C8 C9 O6 2(3) .
C7 C8 C9 O6 124(3) .
N3 C8 C9 O7 174.8(18) .
C7 C8 C9 O7 -63(2) .
Rh2 S4 C10 C11 36.5(9) .
Zn1 S4 C10 C11 151.9(8) 12_556
Rh2 N4 C11 C10 48.9(14) .
Rh2 N4 C11 C12 171.7(13) .
S4 C10 C11 N4 -57.1(14) .
S4 C10 C11 C12 177.5(15) .
N4 C11 C12 O8 7(3) .
C10 C11 C12 O8 130(3) .
N4 C11 C12 O9 174(2) .
C10 C11 C12 O9 -63(3) .
