#------------------------------------------------------------------------------
#$Date: 2018-11-07 01:37:41 +0200 (Wed, 07 Nov 2018) $
#$Revision: 211811 $
#$URL: file:///home/coder/svn-repositories/cod/cif/1/55/01/1550191.cif $
#------------------------------------------------------------------------------
#
# This file is available in the Crystallography Open Database (COD),
# http://www.crystallography.net/
#
# All data on this site have been placed in the public domain by the
# contributors.
#
data_1550191
loop_
_publ_author_name
'Chang, Mu-Chieh'
'Jesse, Kate A.'
'Filatov, Alexander S.'
'Anderson, John S.'
_publ_section_title
;
 Reversible Homolytic Activation of Water via Metal-Ligand Cooperativity
 in a T-Shaped Ni(II) Complex
;
_journal_name_full               'Chemical Science'
_journal_paper_doi               10.1039/C8SC03719A
_journal_year                    2019
_chemical_formula_moiety         'C32 H26 N5 Ni, C20 H30 Co'
_chemical_formula_sum            'C52 H56 Co N5 Ni'
_chemical_formula_weight         868.65
_space_group_crystal_system      monoclinic
_space_group_IT_number           7
_space_group_name_Hall           'P -2yc'
_space_group_name_H-M_alt        'P 1 c 1'
_symmetry_space_group_name_Hall  'P -2yc'
_symmetry_space_group_name_H-M   'P 1 c 1'
_atom_sites_solution_hydrogens   geom
_atom_sites_solution_primary     direct
_audit_creation_date             2017-08-11
_audit_creation_method
;
Olex2 1.2
(compiled 2017.08.10 svn.r3458 for OlexSys, GUI svn.r5375)
;
_audit_update_record
;
2018-08-07 deposited with the CCDC.
2018-11-06 downloaded from the CCDC.
;
_cell_angle_alpha                90
_cell_angle_beta                 116.630(2)
_cell_angle_gamma                90
_cell_formula_units_Z            2
_cell_length_a                   11.6597(7)
_cell_length_b                   16.9613(11)
_cell_length_c                   12.2584(8)
_cell_measurement_reflns_used    9807
_cell_measurement_temperature    100(2)
_cell_measurement_theta_max      28.30
_cell_measurement_theta_min      2.21
_cell_volume                     2167.1(2)
_computing_cell_refinement       'SAINT V.8.35A (Bruker AXS Inc., 2013)'
_computing_data_collection       'APEX3 v.2015.9-0 (Bruker AXS Inc., 2015)'
_computing_data_reduction        'SAINT V.8.35A (Bruker AXS Inc., 2013)'
_computing_molecular_graphics
;
OLEX2: a complete structure solution, refinement and analysis program 
Dolomanov et al., 2009

Mercury: visualization and analysis of crystal structures
Macrae, et al., 2006

O. V. Dolomanov, L. J. Bourhis, R. J. Gildea, J. A. K. Howard and H. Puschmann.
J. Appl. Cryst. (2009). 42, 339-341;

C. F. Macrae, P. R. Edgington, P. McCabe, E. Pidcock, G. P. Shields, R. Taylor,
M. Towler and J. van de Streek, J. Appl. Cryst. (2006). 39, 453-457.
;
_computing_publication_material
;
 APEX3 v.2015.5-2 (Bruker AXS Inc., 2015)
 OLEX2 (Dolomanov et al., 2009)
;
_computing_structure_refinement  'ShelXL (Sheldrick, 2015)'
_computing_structure_solution    'ShelXS (Sheldrick, 2008)'
_diffrn_ambient_temperature      100(2)
_diffrn_detector                 'Bruker PHOTON 100'
_diffrn_detector_area_resol_mean 10.4167
_diffrn_detector_type            CMOS
_diffrn_measured_fraction_theta_full 0.999
_diffrn_measured_fraction_theta_max 0.998
_diffrn_measurement_device_type  'Bruker D8 Venture PHOTON 100 CMOS'
_diffrn_measurement_method       '\w and \f scans'
_diffrn_radiation_monochromator  'mirror '
_diffrn_radiation_type           MoK\a
_diffrn_radiation_wavelength     0.71073
_diffrn_reflns_av_R_equivalents  0.1890
_diffrn_reflns_av_unetI/netI     0.0917
_diffrn_reflns_Laue_measured_fraction_full 0.999
_diffrn_reflns_Laue_measured_fraction_max 0.998
_diffrn_reflns_limit_h_max       15
_diffrn_reflns_limit_h_min       -15
_diffrn_reflns_limit_k_max       22
_diffrn_reflns_limit_k_min       -22
_diffrn_reflns_limit_l_max       16
_diffrn_reflns_limit_l_min       -16
_diffrn_reflns_number            53581
_diffrn_reflns_point_group_measured_fraction_full 1.000
_diffrn_reflns_point_group_measured_fraction_max 0.998
_diffrn_reflns_theta_full        25.242
_diffrn_reflns_theta_max         28.370
_diffrn_reflns_theta_min         2.213
_diffrn_source                   'micro-focus X-ray tube'
_diffrn_source_type              'Incoatec I\ms'
_diffrn_standards_number         0
_exptl_absorpt_coefficient_mu    0.859
_exptl_absorpt_correction_T_max  0.746
_exptl_absorpt_correction_T_min  0.668
_exptl_absorpt_correction_type   multi-scan
_exptl_absorpt_process_details
;
SADABS-2016/2 (Bruker,2016/2) was used for absorption correction.
wR2(int) was 0.0957 before and 0.0541 after correction.
The Ratio of minimum to maximum transmission is 0.9198.
The \l/2 correction factor is Not present.
;
_exptl_crystal_colour            green
_exptl_crystal_density_diffrn    1.331
_exptl_crystal_description       block
_exptl_crystal_F_000             916
_exptl_crystal_size_max          0.33
_exptl_crystal_size_mid          0.3
_exptl_crystal_size_min          0.25
_refine_diff_density_max         1.303
_refine_diff_density_min         -0.840
_refine_diff_density_rms         0.092
_refine_ls_abs_structure_details
;
 Flack x determined using 4811 quotients [(I+)-(I-)]/[(I+)+(I-)]
 (Parsons, Flack and Wagner, Acta Cryst. B69 (2013) 249-259).
;
_refine_ls_abs_structure_Flack   -0.010(17)
_refine_ls_extinction_method     none
_refine_ls_goodness_of_fit_ref   1.070
_refine_ls_hydrogen_treatment    constr
_refine_ls_matrix_type           full
_refine_ls_number_parameters     545
_refine_ls_number_reflns         10753
_refine_ls_number_restraints     2
_refine_ls_restrained_S_all      1.069
_refine_ls_R_factor_all          0.0623
_refine_ls_R_factor_gt           0.0595
_refine_ls_shift/su_max          0.000
_refine_ls_shift/su_mean         0.000
_refine_ls_structure_factor_coef Fsqd
_refine_ls_weighting_details
'w=1/[\s^2^(Fo^2^)+(0.0961P)^2^+1.2664P] where P=(Fo^2^+2Fc^2^)/3'
_refine_ls_weighting_scheme      calc
_refine_ls_wR_factor_gt          0.1545
_refine_ls_wR_factor_ref         0.1575
_reflns_Friedel_coverage         0.996
_reflns_Friedel_fraction_full    1.000
_reflns_Friedel_fraction_max     0.998
_reflns_number_gt                10284
_reflns_number_total             10753
_reflns_threshold_expression     'I > 2\s(I)'
_cod_data_source_file            c8sc03719a2.cif
_cod_data_source_block           mo_0430_anderson_mu_0m
_cod_database_code               1550191
_shelx_shelxl_version_number     2017/1
_shelx_space_group_comment
;
The symmetry employed for this shelxl refinement is uniquely defined
by the following loop, which should always be used as a source of
symmetry information in preference to the above space-group names.
They are only intended as comments.
;
_shelx_estimated_absorpt_t_max   0.814
_shelx_estimated_absorpt_t_min   0.765
_olex2_refinement_description
;
1. Twinned data refinement
 Scales: 0.463(17)
 0.537(17)
2. Fixed Uiso
 At 1.2 times of:
  All C(H) groups
 At 1.5 times of:
  All C(H,H,H) groups
3.a Aromatic/amide H refined with riding coordinates:
 C17(H17), C39(H39), C23(H23), C28(H28), C37(H37), C26(H26), C25(H25),
 C32(H32), C19(H19), C22(H22), C35(H35), C29(H29), C36(H36), C15(H15), C14(H14),
  C16(H16), C13(H13), C20(H20), C31(H31), C38(H38)
3.b Idealised Me refined as rotating group:
 C59(H59A,H59B,H59C), C48(H48A,H48B,H48C), C46(H46A,H46B,H46C), C24(H24A,H24B,
 H24C), C50(H50A,H50B,H50C), C60(H60A,H60B,H60C), C56(H56A,H56B,H56C), C58(H58A,
 H58B,H58C), C47(H47A,H47B,H47C), C57(H57A,H57B,H57C), C49(H49A,H49B,H49C),
 C33(H33A,H33B,H33C)
;
_shelx_res_file
;
TITL mo_0430_Anderson_Mu_0m in Pc #7
    mo_0430_anderson_mu_0m.res
    created by SHELXL-2016/6 at 17:34:13 on 11-Aug-2017
REM reset to Pc #7
CELL 0.71073 11.6597 16.9613 12.2584 90 116.6296 90
ZERR 2 0.0007 0.0011 0.0008 0 0.002 0
LATT -1
SYMM +X,-Y,0.5+Z
SFAC C H Co N Ni
UNIT 104 112 2 10 2

L.S. 4
PLAN  5
SIZE 0.25 0.3 0.33
TEMP -173.15
BOND
fmap 2
ACTA
TWIN -1 0 0 0 1 0 0 0 -1 2
REM <olex2.extras>
REM <HklSrc "%.\\mo_0430_Anderson_Mu_0m.hkl">
REM </olex2.extras>

WGHT    0.096100    1.266400
BASF   0.53670
FVAR       0.18967
NI1   5    0.563201    0.294307    0.698408    11.00000    0.01209    0.01288 =
         0.01588    0.00028    0.00514   -0.00020
CO40  3    0.550929    0.226731    0.236012    11.00000    0.01513    0.01090 =
         0.01117   -0.00041    0.00519    0.00003
N2    4    0.570593    0.192847    0.758182    11.00000    0.01376    0.01334 =
         0.01850    0.00021    0.00603    0.00079
C53   1    0.400320    0.226051    0.064664    11.00000    0.01790    0.01907 =
         0.01276   -0.00315    0.00447    0.00184
N10   4    0.528198    0.396064    0.635961    11.00000    0.01314    0.01315 =
         0.01723    0.00024    0.00403   -0.00046
N6    4    0.727618    0.290876    0.707767    11.00000    0.01143    0.01287 =
         0.01563    0.00026    0.00392    0.00132
C4    1    0.775425    0.156575    0.788589    11.00000    0.01181    0.01309 =
         0.01080   -0.00105    0.00166    0.00052
C45   1    0.704812    0.229538    0.404276    11.00000    0.01809    0.01879 =
         0.01368   -0.00167    0.00074    0.00178
N3    4    0.668863    0.139322    0.795288    11.00000    0.01502    0.01336 =
         0.01570   -0.00185    0.00618   -0.00021
C44   1    0.594738    0.200475    0.413147    11.00000    0.02907    0.01587 =
         0.01217    0.00046    0.00524   -0.00558
N9    4    0.605929    0.445762    0.611375    11.00000    0.01465    0.01430 =
         0.01495   -0.00064    0.00438   -0.00100
C51   1    0.607695    0.191047    0.107717    11.00000    0.01851    0.01614 =
         0.01297   -0.00432    0.00523   -0.00001
C41   1    0.677071    0.307491    0.354252    11.00000    0.01816    0.01879 =
         0.01335   -0.00502    0.00560   -0.00366
C55   1    0.551142    0.126911    0.142907    11.00000    0.02703    0.01240 =
         0.01610   -0.00077    0.01008    0.00144
C18   1    0.869229    0.089768    0.823941    11.00000    0.01151    0.01279 =
         0.01662   -0.00108    0.00508   -0.00080
C43   1    0.498085    0.259941    0.368043    11.00000    0.02014    0.02544 =
         0.01353   -0.00571    0.00689   -0.00463
C17   1    0.468901    0.095861    0.839555    11.00000    0.02345    0.01413 =
         0.02335   -0.00366    0.01297   -0.00115
AFIX  43
H17   2    0.546129    0.066432    0.878490    11.00000   -1.20000
AFIX   0
C39   1    0.341652    0.412150    0.672034    11.00000    0.01921    0.02447 =
         0.01738    0.00066    0.00651    0.00299
AFIX  43
H39   2    0.381539    0.379252    0.741800    11.00000   -1.20000
AFIX   0

C52   1    0.513745    0.252176    0.059930    11.00000    0.02399    0.01423 =
         0.01302   -0.00101    0.00796   -0.00087
C5    1    0.810239    0.228327    0.748880    11.00000    0.01330    0.01398 =
         0.01500   -0.00206    0.00440    0.00059
C23   1    0.905364    0.057404    0.739350    11.00000    0.01974    0.01699 =
         0.01329    0.00096    0.00706    0.00089
AFIX  43
H23   2    0.873030    0.079669    0.659983    11.00000   -1.20000
AFIX   0
C28   1    0.750431    0.531880    0.505912    11.00000    0.01878    0.01658 =
         0.01644    0.00077    0.00416    0.00182
AFIX  43
H28   2    0.672093    0.515638    0.439892    11.00000   -1.20000
AFIX   0
C37   1    0.160333    0.491216    0.539026    11.00000    0.01531    0.02897 =
         0.02501   -0.00200    0.00490    0.00564
AFIX  43
H37   2    0.077001    0.511685    0.517048    11.00000   -1.20000
AFIX   0
C8    1    0.723997    0.425500    0.635658    11.00000    0.01533    0.01403 =
         0.01462   -0.00199    0.00510   -0.00175
C21   1    1.038498   -0.040043    0.884748    11.00000    0.01757    0.01498 =
         0.02180    0.00352    0.00767    0.00293

C59   1    0.327166    0.097687    0.132646    11.00000    0.03545    0.03327 =
         0.03054   -0.01114    0.01763   -0.01795
AFIX 137
H59A  2    0.372321    0.059491    0.197984    11.00000   -1.50000
H59B  2    0.274846    0.069546    0.056524    11.00000   -1.50000
H59C  2    0.271649    0.130730    0.154504    11.00000   -1.50000
AFIX   0

C27   1    0.797903    0.491010    0.615672    11.00000    0.01664    0.01276 =
         0.01854    0.00186    0.00899    0.00122
C26   1    0.913975    0.327169    0.705988    11.00000    0.01523    0.01546 =
         0.02300   -0.00075    0.00863   -0.00155
AFIX  43
H26   2    0.976623    0.357819    0.695683    11.00000   -1.20000
AFIX   0
C25   1    0.927776    0.249758    0.748475    11.00000    0.01266    0.01652 =
         0.02118    0.00112    0.00595    0.00205
AFIX  43
H25   2    1.001768    0.217499    0.772568    11.00000   -1.20000
AFIX   0
C32   1    0.914564    0.515082    0.710338    11.00000    0.01743    0.01748 =
         0.01851   -0.00014    0.00770   -0.00003
AFIX  43
H32   2    0.950127    0.486584    0.784971    11.00000   -1.20000
AFIX   0
C19   1    0.917665    0.055288    0.939300    11.00000    0.02627    0.01883 =
         0.01670    0.00110    0.00985    0.00527
AFIX  43
H19   2    0.892658    0.075265    0.997847    11.00000   -1.20000
AFIX   0
C22   1    0.987767   -0.006782    0.769156    11.00000    0.01913    0.01876 =
         0.01846   -0.00014    0.00896   -0.00022
AFIX  43
H22   2    1.009764   -0.028271    0.709454    11.00000   -1.20000
AFIX   0
C34   1    0.406197    0.429940    0.602038    11.00000    0.01369    0.01235 =
         0.01667   -0.00252    0.00383    0.00017
C35   1    0.346350    0.479540    0.501015    11.00000    0.01676    0.01739 =
         0.01649   -0.00141    0.00441   -0.00115
AFIX  43
H35   2    0.388637    0.492747    0.452868    11.00000   -1.20000
AFIX   0

C48   1    0.368062    0.256698    0.365055    11.00000    0.02262    0.06184 =
         0.02848   -0.01722    0.01708   -0.01673
AFIX 137
H48A  2    0.304876    0.281665    0.290039    11.00000   -1.50000
H48B  2    0.370484    0.284728    0.435965    11.00000   -1.50000
H48C  2    0.343932    0.201583    0.367211    11.00000   -1.50000
AFIX   0
C42   1    0.548932    0.325804    0.330858    11.00000    0.01984    0.01669 =
         0.01434   -0.00337    0.00546    0.00251

C7    1    0.787360    0.351307    0.681034    11.00000    0.01524    0.01352 =
         0.01641   -0.00108    0.00538    0.00101
C54   1    0.422396    0.148269    0.115821    11.00000    0.02276    0.01845 =
         0.01503   -0.00517    0.00682   -0.00437
C29   1    0.816321    0.596405    0.491484    11.00000    0.02410    0.02063 =
         0.02640    0.00879    0.01384    0.00334
AFIX  43
H29   2    0.782526    0.623512    0.415647    11.00000   -1.20000
AFIX   0

C46   1    0.767454    0.360863    0.333864    11.00000    0.03082    0.02614 =
         0.02846   -0.00670    0.01493   -0.01296
AFIX 137
H46A  2    0.818439    0.330073    0.303667    11.00000   -1.50000
H46B  2    0.824698    0.386392    0.410943    11.00000   -1.50000
H46C  2    0.718559    0.401160    0.273598    11.00000   -1.50000
AFIX   0

C36   1    0.224902    0.509532    0.471044    11.00000    0.01936    0.02014 =
         0.01599   -0.00029    0.00119    0.00316
AFIX  43
H36   2    0.185267    0.543359    0.402382    11.00000   -1.20000
AFIX   0
C12   1    0.464774    0.162497    0.771011    11.00000    0.01407    0.01626 =
         0.01684   -0.00543    0.00583   -0.00492
C15   1    0.246327    0.114710    0.796288    11.00000    0.02143    0.03120 =
         0.02543   -0.01121    0.01451   -0.01095
AFIX  43
H15   2    0.173352    0.098950    0.806169    11.00000   -1.20000
AFIX   0
C24   1    1.131007   -0.108385    0.917094    11.00000    0.03201    0.02560 =
         0.02934    0.00946    0.01575    0.01543
AFIX 137
H24A  2    1.094391   -0.154223    0.938894    11.00000   -1.50000
H24B  2    1.212293   -0.093813    0.986503    11.00000   -1.50000
H24C  2    1.146364   -0.121467    0.846875    11.00000   -1.50000
AFIX   0
C14   1    0.240781    0.180702    0.726589    11.00000    0.01307    0.03669 =
         0.02316   -0.00801    0.00620   -0.00437
AFIX  43
H14   2    0.163449    0.210069    0.688021    11.00000   -1.20000
AFIX   0
C16   1    0.360082    0.072175    0.851246    11.00000    0.03245    0.01709 =
         0.02703   -0.00577    0.01894   -0.00632
AFIX  43
H16   2    0.363933    0.026380    0.897386    11.00000   -1.20000
AFIX   0

C50   1    0.830037    0.187440    0.441679    11.00000    0.02382    0.03475 =
         0.02107   -0.00246   -0.00089    0.01326
AFIX 137
H50A  2    0.814869    0.130450    0.432576    11.00000   -1.50000
H50B  2    0.887721    0.199700    0.527083    11.00000   -1.50000
H50C  2    0.869302    0.204678    0.389806    11.00000   -1.50000
AFIX   0

C13   1    0.348529    0.203700    0.713359    11.00000    0.01640    0.02414 =
         0.01761   -0.00158    0.00619   -0.00120
AFIX  43
H13   2    0.343165    0.248219    0.664266    11.00000   -1.20000
AFIX   0

C60   1    0.614369    0.049255    0.190504    11.00000    0.04938    0.01637 =
         0.02678    0.00288    0.01324    0.01087
AFIX 137
H60A  2    0.705808    0.057552    0.244143    11.00000   -1.50000
H60B  2    0.604518    0.015449    0.122015    11.00000   -1.50000
H60C  2    0.574244    0.023838    0.236567    11.00000   -1.50000
AFIX   0
C56   1    0.736796    0.193104    0.110823    11.00000    0.02159    0.04440 =
         0.02658   -0.00625    0.01418    0.00307
AFIX 137
H56A  2    0.773923    0.245840    0.135045    11.00000   -1.50000
H56B  2    0.728741    0.180608    0.029637    11.00000   -1.50000
H56C  2    0.792692    0.154218    0.169832    11.00000   -1.50000
AFIX   0

C20   1    1.002278   -0.008098    0.969602    11.00000    0.02904    0.02231 =
         0.01678    0.00714    0.00871    0.00790
AFIX  43
H20   2    1.035892   -0.029951    1.049315    11.00000   -1.20000
AFIX   0

C58   1    0.275821    0.270278    0.018320    11.00000    0.02201    0.03975 =
         0.02367   -0.00817    0.00108    0.01353
AFIX 137
H58A  2    0.222987    0.248002    0.054304    11.00000   -1.50000
H58B  2    0.230092    0.265741   -0.070746    11.00000   -1.50000
H58C  2    0.293104    0.325962    0.041147    11.00000   -1.50000
AFIX   0

C31   1    0.979251    0.580147    0.696765    11.00000    0.01563    0.02015 =
         0.02627   -0.00094    0.00786   -0.00281
AFIX  43
H31   2    1.057212    0.596652    0.763023    11.00000   -1.20000
AFIX   0
C30   1    0.930892    0.621597    0.586694    11.00000    0.01923    0.01868 =
         0.03065    0.00342    0.01396    0.00078

C47   1    0.480475    0.401908    0.279816    11.00000    0.03336    0.01889 =
         0.02359   -0.00446    0.00482    0.00966
AFIX 137
H47A  2    0.517937    0.427350    0.231464    11.00000   -1.50000
H47B  2    0.489375    0.436790    0.346891    11.00000   -1.50000
H47C  2    0.389360    0.391338    0.227724    11.00000   -1.50000
AFIX   0

C38   1    0.219910    0.442287    0.640050    11.00000    0.01786    0.03386 =
         0.02381   -0.00092    0.01056    0.00139
AFIX  43
H38   2    0.176945    0.429330    0.687687    11.00000   -1.20000
AFIX   0

C57   1    0.531667    0.328387    0.008772    11.00000    0.05270    0.01710 =
         0.02311   -0.00056    0.01903   -0.00440
AFIX 137
H57A  2    0.459532    0.363549   -0.005778    11.00000   -1.50000
H57B  2    0.535377    0.318561   -0.068364    11.00000   -1.50000
H57C  2    0.611864    0.353118    0.066849    11.00000   -1.50000
AFIX   0
C49   1    0.582254    0.121980    0.464030    11.00000    0.05489    0.02674 =
         0.01565    0.00439    0.00877   -0.01552
AFIX 137
H49A  2    0.494310    0.102422    0.418320    11.00000   -1.50000
H49B  2    0.602134    0.128073    0.550187    11.00000   -1.50000
H49C  2    0.642186    0.084324    0.456723    11.00000   -1.50000
AFIX   0

C33   1    1.001236    0.691978    0.570813    11.00000    0.03016    0.02683 =
         0.05086    0.00963    0.02261   -0.00390
AFIX 137
H33A  2    1.010562    0.685883    0.495686    11.00000   -1.50000
H33B  2    1.086319    0.695672    0.640725    11.00000   -1.50000
H33C  2    0.952494    0.740068    0.565716    11.00000   -1.50000
AFIX   0
HKLF 4




REM  mo_0430_Anderson_Mu_0m in Pc #7
REM R1 =  0.0595 for   10284 Fo > 4sig(Fo)  and  0.0623 for all   10753 data
REM    545 parameters refined using      2 restraints

END

WGHT      0.0961      1.2664

REM Highest difference peak  1.303,  deepest hole -0.840,  1-sigma level  0.092
Q1    1   0.6372  0.2946  0.6983  11.00000  0.05    1.30
Q2    1   0.4774  0.2263  0.2361  11.00000  0.05    1.09
Q3    1   0.4870  0.2961  0.6876  11.00000  0.05    1.01
Q4    1   0.6209  0.2289  0.2382  11.00000  0.05    0.92
Q5    1   0.5783  0.2578  0.2044  11.00000  0.05    0.60
;
_shelx_res_checksum              11508
_olex2_submission_special_instructions 'No special instructions were received'
loop_
_space_group_symop_operation_xyz
'x, y, z'
'x, -y, z+1/2'
loop_
_atom_site_label
_atom_site_type_symbol
_atom_site_fract_x
_atom_site_fract_y
_atom_site_fract_z
_atom_site_U_iso_or_equiv
_atom_site_adp_type
_atom_site_occupancy
_atom_site_site_symmetry_order
_atom_site_calc_flag
_atom_site_refinement_flags_posn
Ni1 Ni 0.56320(5) 0.29431(4) 0.69841(5) 0.01403(15) Uani 1 1 d .
Co40 Co 0.55093(5) 0.22673(4) 0.23601(5) 0.01266(15) Uani 1 1 d .
N2 N 0.5706(4) 0.1928(3) 0.7582(4) 0.0157(8) Uani 1 1 d .
C53 C 0.4003(5) 0.2261(3) 0.0647(5) 0.0175(10) Uani 1 1 d .
N10 N 0.5282(4) 0.3961(2) 0.6360(4) 0.0155(8) Uani 1 1 d .
N6 N 0.7276(4) 0.2909(2) 0.7078(4) 0.0141(8) Uani 1 1 d .
C4 C 0.7754(4) 0.1566(3) 0.7886(4) 0.0132(8) Uani 1 1 d .
C45 C 0.7048(5) 0.2295(3) 0.4043(5) 0.0192(10) Uani 1 1 d .
N3 N 0.6689(4) 0.1393(2) 0.7953(4) 0.0150(7) Uani 1 1 d .
C44 C 0.5947(6) 0.2005(3) 0.4131(5) 0.0205(10) Uani 1 1 d .
N9 N 0.6059(4) 0.4458(3) 0.6114(4) 0.0155(7) Uani 1 1 d .
C51 C 0.6077(5) 0.1910(3) 0.1077(4) 0.0166(9) Uani 1 1 d .
C41 C 0.6771(5) 0.3075(3) 0.3543(5) 0.0173(9) Uani 1 1 d .
C55 C 0.5511(5) 0.1269(3) 0.1429(5) 0.0184(9) Uani 1 1 d .
C18 C 0.8692(4) 0.0898(3) 0.8239(4) 0.0141(8) Uani 1 1 d .
C43 C 0.4981(5) 0.2599(3) 0.3680(5) 0.0199(10) Uani 1 1 d .
C17 C 0.4689(5) 0.0959(3) 0.8396(5) 0.0194(9) Uani 1 1 d .
H17 H 0.546129 0.066432 0.878490 0.023 Uiso 1 1 calc R
C39 C 0.3417(5) 0.4122(3) 0.6720(5) 0.0210(10) Uani 1 1 d .
H39 H 0.381539 0.379252 0.741800 0.025 Uiso 1 1 calc R
C52 C 0.5137(5) 0.2522(3) 0.0599(4) 0.0172(9) Uani 1 1 d .
C5 C 0.8102(5) 0.2283(3) 0.7489(4) 0.0148(9) Uani 1 1 d .
C23 C 0.9054(5) 0.0574(3) 0.7393(4) 0.0168(9) Uani 1 1 d .
H23 H 0.873030 0.079669 0.659983 0.020 Uiso 1 1 calc R
C28 C 0.7504(5) 0.5319(3) 0.5059(4) 0.0187(9) Uani 1 1 d .
H28 H 0.672093 0.515638 0.439892 0.022 Uiso 1 1 calc R
C37 C 0.1603(5) 0.4912(4) 0.5390(5) 0.0246(11) Uani 1 1 d .
H37 H 0.077001 0.511685 0.517048 0.030 Uiso 1 1 calc R
C8 C 0.7240(4) 0.4255(3) 0.6357(4) 0.0153(9) Uani 1 1 d .
C21 C 1.0385(5) -0.0400(3) 0.8847(5) 0.0186(9) Uani 1 1 d .
C59 C 0.3272(6) 0.0977(4) 0.1326(6) 0.0320(13) Uani 1 1 d .
H59A H 0.372321 0.059491 0.197984 0.048 Uiso 1 1 calc GR
H59B H 0.274846 0.069546 0.056524 0.048 Uiso 1 1 calc GR
H59C H 0.271649 0.130730 0.154504 0.048 Uiso 1 1 calc GR
C27 C 0.7979(5) 0.4910(3) 0.6157(4) 0.0156(8) Uani 1 1 d .
C26 C 0.9140(5) 0.3272(3) 0.7060(5) 0.0179(9) Uani 1 1 d .
H26 H 0.976623 0.357819 0.695683 0.021 Uiso 1 1 calc R
C25 C 0.9278(4) 0.2498(3) 0.7485(5) 0.0174(9) Uani 1 1 d .
H25 H 1.001768 0.217499 0.772568 0.021 Uiso 1 1 calc R
C32 C 0.9146(5) 0.5151(3) 0.7103(5) 0.0179(9) Uani 1 1 d .
H32 H 0.950127 0.486584 0.784971 0.022 Uiso 1 1 calc R
C19 C 0.9177(5) 0.0553(3) 0.9393(5) 0.0205(10) Uani 1 1 d .
H19 H 0.892658 0.075265 0.997847 0.025 Uiso 1 1 calc R
C22 C 0.9878(5) -0.0068(3) 0.7692(5) 0.0186(9) Uani 1 1 d .
H22 H 1.009764 -0.028271 0.709454 0.022 Uiso 1 1 calc R
C34 C 0.4062(4) 0.4299(3) 0.6020(4) 0.0154(8) Uani 1 1 d .
C35 C 0.3464(5) 0.4795(3) 0.5010(4) 0.0180(9) Uani 1 1 d .
H35 H 0.388637 0.492747 0.452868 0.022 Uiso 1 1 calc R
C48 C 0.3681(6) 0.2567(5) 0.3651(6) 0.0355(15) Uani 1 1 d .
H48A H 0.304876 0.281665 0.290039 0.053 Uiso 1 1 calc GR
H48B H 0.370484 0.284728 0.435965 0.053 Uiso 1 1 calc GR
H48C H 0.343932 0.201583 0.367211 0.053 Uiso 1 1 calc GR
C42 C 0.5489(5) 0.3258(3) 0.3309(4) 0.0178(9) Uani 1 1 d .
C7 C 0.7874(4) 0.3513(3) 0.6810(4) 0.0157(9) Uani 1 1 d .
C54 C 0.4224(5) 0.1483(3) 0.1158(5) 0.0194(9) Uani 1 1 d .
C29 C 0.8163(5) 0.5964(3) 0.4915(5) 0.0228(10) Uani 1 1 d .
H29 H 0.782526 0.623512 0.415647 0.027 Uiso 1 1 calc R
C46 C 0.7675(6) 0.3609(4) 0.3339(6) 0.0279(12) Uani 1 1 d .
H46A H 0.818439 0.330073 0.303667 0.042 Uiso 1 1 calc GR
H46B H 0.824698 0.386392 0.410943 0.042 Uiso 1 1 calc GR
H46C H 0.718559 0.401160 0.273598 0.042 Uiso 1 1 calc GR
C36 C 0.2249(5) 0.5095(3) 0.4710(5) 0.0210(10) Uani 1 1 d .
H36 H 0.185267 0.543359 0.402382 0.025 Uiso 1 1 calc R
C12 C 0.4648(4) 0.1625(3) 0.7710(4) 0.0161(9) Uani 1 1 d .
C15 C 0.2463(5) 0.1147(4) 0.7963(5) 0.0245(11) Uani 1 1 d .
H15 H 0.173352 0.098950 0.806169 0.029 Uiso 1 1 calc R
C24 C 1.1310(6) -0.1084(4) 0.9171(6) 0.0282(12) Uani 1 1 d .
H24A H 1.094391 -0.154223 0.938894 0.042 Uiso 1 1 calc GR
H24B H 1.212293 -0.093813 0.986503 0.042 Uiso 1 1 calc GR
H24C H 1.146364 -0.121467 0.846875 0.042 Uiso 1 1 calc GR
C14 C 0.2408(5) 0.1807(4) 0.7266(5) 0.0250(11) Uani 1 1 d .
H14 H 0.163449 0.210069 0.688021 0.030 Uiso 1 1 calc R
C16 C 0.3601(6) 0.0722(3) 0.8512(5) 0.0234(10) Uani 1 1 d .
H16 H 0.363933 0.026380 0.897386 0.028 Uiso 1 1 calc R
C50 C 0.8300(6) 0.1874(4) 0.4417(5) 0.0306(13) Uani 1 1 d .
H50A H 0.814869 0.130450 0.432576 0.046 Uiso 1 1 calc GR
H50B H 0.887721 0.199700 0.527083 0.046 Uiso 1 1 calc GR
H50C H 0.869302 0.204678 0.389806 0.046 Uiso 1 1 calc GR
C13 C 0.3485(5) 0.2037(3) 0.7134(5) 0.0199(10) Uani 1 1 d .
H13 H 0.343165 0.248219 0.664266 0.024 Uiso 1 1 calc R
C60 C 0.6144(7) 0.0493(4) 0.1905(6) 0.0323(13) Uani 1 1 d .
H60A H 0.705808 0.057552 0.244143 0.048 Uiso 1 1 calc GR
H60B H 0.604518 0.015449 0.122015 0.048 Uiso 1 1 calc GR
H60C H 0.574244 0.023838 0.236567 0.048 Uiso 1 1 calc GR
C56 C 0.7368(6) 0.1931(4) 0.1108(6) 0.0296(13) Uani 1 1 d .
H56A H 0.773923 0.245840 0.135045 0.044 Uiso 1 1 calc GR
H56B H 0.728741 0.180608 0.029637 0.044 Uiso 1 1 calc GR
H56C H 0.792692 0.154218 0.169832 0.044 Uiso 1 1 calc GR
C20 C 1.0023(6) -0.0081(3) 0.9696(5) 0.0233(10) Uani 1 1 d .
H20 H 1.035892 -0.029951 1.049315 0.028 Uiso 1 1 calc R
C58 C 0.2758(6) 0.2703(4) 0.0183(6) 0.0319(14) Uani 1 1 d .
H58A H 0.222987 0.248002 0.054304 0.048 Uiso 1 1 calc GR
H58B H 0.230092 0.265741 -0.070746 0.048 Uiso 1 1 calc GR
H58C H 0.293104 0.325962 0.041147 0.048 Uiso 1 1 calc GR
C31 C 0.9793(5) 0.5801(3) 0.6968(5) 0.0213(10) Uani 1 1 d .
H31 H 1.057212 0.596652 0.763023 0.026 Uiso 1 1 calc R
C30 C 0.9309(5) 0.6216(3) 0.5867(5) 0.0218(10) Uani 1 1 d .
C47 C 0.4805(6) 0.4019(3) 0.2798(6) 0.0283(12) Uani 1 1 d .
H47A H 0.517937 0.427350 0.231464 0.042 Uiso 1 1 calc GR
H47B H 0.489375 0.436790 0.346891 0.042 Uiso 1 1 calc GR
H47C H 0.389360 0.391338 0.227724 0.042 Uiso 1 1 calc GR
C38 C 0.2199(5) 0.4423(4) 0.6401(5) 0.0247(11) Uani 1 1 d .
H38 H 0.176945 0.429330 0.687687 0.030 Uiso 1 1 calc R
C57 C 0.5317(7) 0.3284(3) 0.0088(6) 0.0302(13) Uani 1 1 d .
H57A H 0.459532 0.363549 -0.005778 0.045 Uiso 1 1 calc GR
H57B H 0.535377 0.318561 -0.068364 0.045 Uiso 1 1 calc GR
H57C H 0.611864 0.353118 0.066849 0.045 Uiso 1 1 calc GR
C49 C 0.5823(7) 0.1220(4) 0.4640(5) 0.0351(15) Uani 1 1 d .
H49A H 0.494310 0.102422 0.418320 0.053 Uiso 1 1 calc GR
H49B H 0.602134 0.128073 0.550187 0.053 Uiso 1 1 calc GR
H49C H 0.642186 0.084324 0.456723 0.053 Uiso 1 1 calc GR
C33 C 1.0012(6) 0.6920(4) 0.5708(7) 0.0343(14) Uani 1 1 d .
H33A H 1.010562 0.685883 0.495686 0.051 Uiso 1 1 calc GR
H33B H 1.086319 0.695672 0.640725 0.051 Uiso 1 1 calc GR
H33C H 0.952494 0.740068 0.565716 0.051 Uiso 1 1 calc GR
loop_
_atom_site_aniso_label
_atom_site_aniso_U_11
_atom_site_aniso_U_22
_atom_site_aniso_U_33
_atom_site_aniso_U_23
_atom_site_aniso_U_13
_atom_site_aniso_U_12
Ni1 0.0121(3) 0.0129(3) 0.0159(3) 0.0003(2) 0.0051(2) -0.0002(2)
Co40 0.0151(3) 0.0109(3) 0.0112(3) -0.0004(2) 0.0052(2) 0.0000(2)
N2 0.0138(18) 0.0133(17) 0.019(2) 0.0002(15) 0.0060(16) 0.0008(14)
C53 0.018(2) 0.019(2) 0.013(2) -0.0031(17) 0.0045(19) 0.0018(17)
N10 0.0131(17) 0.0132(18) 0.0172(19) 0.0002(15) 0.0040(15) -0.0005(14)
N6 0.0114(17) 0.0129(19) 0.0156(19) 0.0003(14) 0.0039(15) 0.0013(13)
C4 0.0118(19) 0.013(2) 0.0108(18) -0.0010(16) 0.0017(16) 0.0005(16)
C45 0.018(2) 0.019(2) 0.014(2) -0.0017(17) 0.0007(18) 0.0018(17)
N3 0.0150(17) 0.0134(18) 0.0157(18) -0.0019(14) 0.0062(15) -0.0002(15)
C44 0.029(3) 0.016(2) 0.012(2) 0.0005(17) 0.0052(19) -0.0056(19)
N9 0.0146(18) 0.0143(18) 0.0150(17) -0.0006(15) 0.0044(15) -0.0010(15)
C51 0.019(2) 0.016(2) 0.013(2) -0.0043(17) 0.0052(18) 0.0000(17)
C41 0.018(2) 0.019(2) 0.013(2) -0.0050(18) 0.0056(18) -0.0037(18)
C55 0.027(3) 0.012(2) 0.016(2) -0.0008(17) 0.0101(19) 0.0014(18)
C18 0.0115(19) 0.013(2) 0.017(2) -0.0011(16) 0.0051(16) -0.0008(15)
C43 0.020(2) 0.025(3) 0.014(2) -0.0057(19) 0.0069(18) -0.0046(19)
C17 0.023(2) 0.014(2) 0.023(2) -0.0037(18) 0.013(2) -0.0012(18)
C39 0.019(2) 0.024(3) 0.017(2) 0.0007(19) 0.0065(19) 0.0030(19)
C52 0.024(2) 0.014(2) 0.013(2) -0.0010(18) 0.0080(18) -0.0009(18)
C5 0.013(2) 0.014(2) 0.015(2) -0.0021(16) 0.0044(17) 0.0006(16)
C23 0.020(2) 0.017(2) 0.0133(19) 0.0010(17) 0.0071(17) 0.0009(18)
C28 0.019(2) 0.017(2) 0.016(2) 0.0008(17) 0.0042(18) 0.0018(17)
C37 0.015(2) 0.029(3) 0.025(3) -0.002(2) 0.005(2) 0.006(2)
C8 0.015(2) 0.014(2) 0.015(2) -0.0020(16) 0.0051(17) -0.0017(16)
C21 0.018(2) 0.015(2) 0.022(2) 0.0035(18) 0.0077(19) 0.0029(17)
C59 0.035(3) 0.033(3) 0.031(3) -0.011(2) 0.018(3) -0.018(3)
C27 0.017(2) 0.013(2) 0.019(2) 0.0019(17) 0.0090(18) 0.0012(17)
C26 0.015(2) 0.015(2) 0.023(2) -0.0008(18) 0.0086(19) -0.0016(17)
C25 0.013(2) 0.017(2) 0.021(2) 0.0011(19) 0.0060(17) 0.0021(17)
C32 0.017(2) 0.017(2) 0.019(2) -0.0001(18) 0.0077(18) 0.0000(17)
C19 0.026(2) 0.019(2) 0.017(2) 0.0011(18) 0.0098(19) 0.0053(19)
C22 0.019(2) 0.019(2) 0.018(2) -0.0001(18) 0.0090(18) -0.0002(18)
C34 0.0137(19) 0.012(2) 0.017(2) -0.0025(16) 0.0038(17) 0.0002(16)
C35 0.017(2) 0.017(2) 0.016(2) -0.0014(17) 0.0044(18) -0.0011(17)
C48 0.023(3) 0.062(5) 0.028(3) -0.017(3) 0.017(2) -0.017(3)
C42 0.020(2) 0.017(2) 0.014(2) -0.0034(17) 0.0055(18) 0.0025(18)
C7 0.015(2) 0.014(2) 0.016(2) -0.0011(17) 0.0054(17) 0.0010(17)
C54 0.023(2) 0.018(2) 0.015(2) -0.0052(18) 0.0068(18) -0.0044(19)
C29 0.024(2) 0.021(2) 0.026(3) 0.009(2) 0.014(2) 0.0033(19)
C46 0.031(3) 0.026(3) 0.028(3) -0.007(2) 0.015(2) -0.013(2)
C36 0.019(2) 0.020(2) 0.016(2) -0.0003(18) 0.0012(18) 0.0032(18)
C12 0.014(2) 0.016(2) 0.017(2) -0.0054(17) 0.0058(17) -0.0049(17)
C15 0.021(2) 0.031(3) 0.025(3) -0.011(2) 0.015(2) -0.011(2)
C24 0.032(3) 0.026(3) 0.029(3) 0.009(2) 0.016(2) 0.015(2)
C14 0.013(2) 0.037(3) 0.023(2) -0.008(2) 0.0062(19) -0.004(2)
C16 0.032(3) 0.017(2) 0.027(3) -0.006(2) 0.019(2) -0.006(2)
C50 0.024(3) 0.035(3) 0.021(3) -0.002(2) -0.001(2) 0.013(2)
C13 0.016(2) 0.024(3) 0.018(2) -0.0016(19) 0.0062(19) -0.0012(18)
C60 0.049(4) 0.016(2) 0.027(3) 0.003(2) 0.013(3) 0.011(2)
C56 0.022(3) 0.044(4) 0.027(3) -0.006(2) 0.014(2) 0.003(2)
C20 0.029(3) 0.022(2) 0.017(2) 0.0071(19) 0.009(2) 0.008(2)
C58 0.022(3) 0.040(4) 0.024(3) -0.008(2) 0.001(2) 0.014(2)
C31 0.016(2) 0.020(2) 0.026(2) -0.0009(19) 0.0079(19) -0.0028(18)
C30 0.019(2) 0.019(2) 0.031(3) 0.003(2) 0.014(2) 0.0008(18)
C47 0.033(3) 0.019(3) 0.024(3) -0.004(2) 0.005(2) 0.010(2)
C38 0.018(2) 0.034(3) 0.024(2) -0.001(2) 0.011(2) 0.001(2)
C57 0.053(4) 0.017(2) 0.023(3) -0.001(2) 0.019(3) -0.004(2)
C49 0.055(4) 0.027(3) 0.016(2) 0.004(2) 0.009(3) -0.016(3)
C33 0.030(3) 0.027(3) 0.051(4) 0.010(3) 0.023(3) -0.004(2)
loop_
_atom_type_symbol
_atom_type_description
_atom_type_scat_dispersion_real
_atom_type_scat_dispersion_imag
_atom_type_scat_source
C C 0.0033 0.0016 'International Tables Vol C Tables 4.2.6.8 and 6.1.1.4'
H H 0.0000 0.0000 'International Tables Vol C Tables 4.2.6.8 and 6.1.1.4'
Co Co 0.3494 0.9721 'International Tables Vol C Tables 4.2.6.8 and 6.1.1.4'
N N 0.0061 0.0033 'International Tables Vol C Tables 4.2.6.8 and 6.1.1.4'
Ni Ni 0.3393 1.1124 'International Tables Vol C Tables 4.2.6.8 and 6.1.1.4'
loop_
_geom_angle_atom_site_label_1
_geom_angle_atom_site_label_2
_geom_angle_atom_site_label_3
_geom_angle
N2 Ni1 N10 170.47(19)
N2 Ni1 N6 94.70(18)
N10 Ni1 N6 94.82(18)
C53 Co40 C51 68.6(2)
C53 Co40 C41 137.8(2)
C53 Co40 C43 112.8(2)
C53 Co40 C52 40.6(2)
C53 Co40 C42 111.4(2)
C53 Co40 C54 41.0(2)
C45 Co40 C53 177.9(2)
C45 Co40 C44 40.8(2)
C45 Co40 C51 110.0(2)
C45 Co40 C41 40.9(2)
C45 Co40 C55 111.3(2)
C45 Co40 C43 68.6(2)
C45 Co40 C52 137.4(2)
C45 Co40 C42 68.6(2)
C45 Co40 C54 140.3(2)
C44 Co40 C53 141.2(2)
C44 Co40 C51 137.5(2)
C44 Co40 C41 68.7(2)
C44 Co40 C43 40.8(2)
C44 Co40 C52 177.9(2)
C44 Co40 C42 68.7(2)
C44 Co40 C54 112.1(2)
C51 Co40 C41 111.2(2)
C55 Co40 C53 68.7(2)
C55 Co40 C44 110.5(2)
C55 Co40 C51 41.0(2)
C55 Co40 C41 140.0(2)
C55 Co40 C43 138.1(2)
C55 Co40 C52 68.8(2)
C55 Co40 C42 179.0(2)
C55 Co40 C54 40.9(2)
C43 Co40 C51 178.2(2)
C43 Co40 C41 68.5(2)
C52 Co40 C51 40.8(2)
C52 Co40 C41 110.4(2)
C52 Co40 C43 141.0(2)
C52 Co40 C42 112.0(2)
C52 Co40 C54 68.8(2)
C42 Co40 C51 140.0(2)
C42 Co40 C41 40.6(2)
C42 Co40 C43 40.9(2)
C42 Co40 C54 138.5(2)
C54 Co40 C51 69.0(2)
C54 Co40 C41 178.7(2)
C54 Co40 C43 111.3(2)
N3 N2 Ni1 129.0(3)
N3 N2 C12 111.4(4)
C12 N2 Ni1 119.6(3)
C52 C53 Co40 69.8(3)
C52 C53 C54 108.5(4)
C52 C53 C58 126.1(5)
C54 C53 Co40 69.7(3)
C54 C53 C58 125.4(5)
C58 C53 Co40 128.7(4)
N9 N10 Ni1 128.2(3)
N9 N10 C34 111.3(4)
C34 N10 Ni1 120.4(3)
C5 N6 Ni1 125.5(3)
C7 N6 Ni1 125.7(3)
C7 N6 C5 108.7(4)
N3 C4 C18 113.7(4)
N3 C4 C5 129.0(4)
C5 C4 C18 117.3(4)
C44 C45 Co40 69.8(3)
C44 C45 C41 108.3(5)
C44 C45 C50 126.8(5)
C41 C45 Co40 70.2(3)
C41 C45 C50 124.9(5)
C50 C45 Co40 126.3(4)
C4 N3 N2 120.3(4)
C45 C44 Co40 69.4(3)
C45 C44 C43 108.0(4)
C45 C44 C49 126.6(6)
C43 C44 Co40 69.9(3)
C43 C44 C49 125.4(5)
C49 C44 Co40 127.5(4)
C8 N9 N10 121.2(4)
C55 C51 Co40 69.1(3)
C55 C51 C56 127.3(5)
C52 C51 Co40 69.4(3)
C52 C51 C55 107.6(4)
C52 C51 C56 125.0(5)
C56 C51 Co40 130.0(4)
C45 C41 Co40 68.9(3)
C45 C41 C46 126.2(5)
C42 C41 Co40 69.4(3)
C42 C41 C45 107.6(4)
C42 C41 C46 126.1(5)
C46 C41 Co40 128.4(4)
C51 C55 Co40 69.8(3)
C51 C55 C60 124.9(5)
C54 C55 Co40 69.9(3)
C54 C55 C51 108.3(4)
C54 C55 C60 126.6(5)
C60 C55 Co40 129.5(4)
C23 C18 C4 120.5(4)
C19 C18 C4 121.5(4)
C19 C18 C23 118.0(4)
C44 C43 Co40 69.3(3)
C44 C43 C48 126.7(6)
C44 C43 C42 107.9(5)
C48 C43 Co40 128.9(4)
C42 C43 Co40 69.5(3)
C42 C43 C48 125.4(6)
C12 C17 C16 120.4(5)
C38 C39 C34 120.5(5)
C53 C52 Co40 69.7(3)
C53 C52 C51 108.3(4)
C53 C52 C57 126.6(5)
C51 C52 Co40 69.7(3)
C51 C52 C57 125.1(5)
C57 C52 Co40 128.5(4)
N6 C5 C4 121.5(4)
N6 C5 C25 108.8(4)
C25 C5 C4 129.7(4)
C22 C23 C18 121.1(5)
C27 C28 C29 120.8(5)
C36 C37 C38 118.7(5)
N9 C8 C27 113.0(4)
N9 C8 C7 128.3(5)
C7 C8 C27 118.7(4)
C22 C21 C24 120.5(5)
C22 C21 C20 118.1(5)
C20 C21 C24 121.4(5)
C28 C27 C8 121.5(4)
C28 C27 C32 118.4(5)
C32 C27 C8 120.0(4)
C25 C26 C7 106.6(4)
C26 C25 C5 107.0(4)
C31 C32 C27 120.8(5)
C20 C19 C18 120.7(5)
C21 C22 C23 121.0(5)
C39 C34 N10 118.5(4)
C35 C34 N10 122.9(4)
C35 C34 C39 118.6(5)
C36 C35 C34 120.0(5)
C41 C42 Co40 70.0(3)
C41 C42 C43 108.2(5)
C41 C42 C47 125.9(5)
C43 C42 Co40 69.7(3)
C43 C42 C47 125.9(5)
C47 C42 Co40 127.5(4)
N6 C7 C8 121.5(4)
N6 C7 C26 108.9(4)
C26 C7 C8 129.5(5)
C53 C54 Co40 69.3(3)
C53 C54 C59 126.3(5)
C55 C54 Co40 69.2(3)
C55 C54 C53 107.4(4)
C55 C54 C59 126.3(5)
C59 C54 Co40 128.6(4)
C30 C29 C28 120.8(5)
C37 C36 C35 121.5(5)
C17 C12 N2 124.5(5)
C17 C12 C13 118.1(5)
C13 C12 N2 117.3(5)
C16 C15 C14 119.1(5)
C15 C14 C13 120.0(5)
C15 C16 C17 120.9(5)
C14 C13 C12 121.4(5)
C19 C20 C21 121.1(5)
C32 C31 C30 120.7(5)
C29 C30 C31 118.4(5)
C29 C30 C33 120.5(5)
C31 C30 C33 121.0(5)
C39 C38 C37 120.7(5)
loop_
_geom_bond_atom_site_label_1
_geom_bond_atom_site_label_2
_geom_bond_distance
Ni1 N2 1.857(4)
Ni1 N10 1.858(4)
Ni1 N6 1.869(4)
Co40 C53 2.047(5)
Co40 C45 2.039(5)
Co40 C44 2.044(5)
Co40 C51 2.052(5)
Co40 C41 2.057(5)
Co40 C55 2.042(5)
Co40 C43 2.052(5)
Co40 C52 2.048(5)
Co40 C42 2.049(5)
Co40 C54 2.051(5)
N2 N3 1.370(6)
N2 C12 1.409(6)
C53 C52 1.420(7)
C53 C54 1.434(7)
C53 C58 1.501(7)
N10 N9 1.367(6)
N10 C34 1.413(6)
N6 C5 1.368(6)
N6 C7 1.359(6)
C4 N3 1.314(6)
C4 C18 1.498(6)
C4 C5 1.435(7)
C45 C44 1.424(8)
C45 C41 1.432(7)
C45 C50 1.501(7)
C44 C43 1.426(8)
C44 C49 1.505(7)
N9 C8 1.317(6)
C51 C55 1.435(7)
C51 C52 1.429(7)
C51 C56 1.489(7)
C41 C42 1.424(7)
C41 C46 1.493(7)
C55 C54 1.431(7)
C55 C60 1.494(7)
C18 C23 1.395(7)
C18 C19 1.395(7)
C43 C48 1.501(8)
C43 C42 1.432(8)
C17 C12 1.396(7)
C17 C16 1.398(7)
C39 C34 1.404(7)
C39 C38 1.390(7)
C52 C57 1.492(8)
C5 C25 1.420(7)
C23 C22 1.388(7)
C28 C27 1.389(7)
C28 C29 1.393(7)
C37 C36 1.386(8)
C37 C38 1.391(8)
C8 C27 1.492(7)
C8 C7 1.439(7)
C21 C22 1.387(7)
C21 C24 1.510(7)
C21 C20 1.396(7)
C59 C54 1.489(8)
C27 C32 1.396(7)
C26 C25 1.395(7)
C26 C7 1.427(6)
C32 C31 1.388(7)
C19 C20 1.392(7)
C34 C35 1.398(7)
C35 C36 1.390(7)
C42 C47 1.499(7)
C29 C30 1.390(8)
C12 C13 1.402(7)
C15 C14 1.392(9)
C15 C16 1.390(8)
C14 C13 1.393(7)
C31 C30 1.397(8)
C30 C33 1.510(8)
loop_
_twin_individual_id
_twin_individual_mass_fraction_refined
1 0.463(17)
2 0.537(17)
