#------------------------------------------------------------------------------
#$Date: 2018-10-19 01:23:32 +0300 (Fri, 19 Oct 2018) $
#$Revision: 211530 $
#$URL: file:///home/coder/svn-repositories/cod/cif/1/55/00/1550052.cif $
#------------------------------------------------------------------------------
#
# This file is available in the Crystallography Open Database (COD),
# http://www.crystallography.net/
#
# All data on this site have been placed in the public domain by the
# contributors.
#
data_1550052
loop_
_publ_author_name
'Choi, Yoona'
'Kim, Heejun'
'Park, Seung Bum'
_publ_section_title
;
 Divergent Synthetic Pathway for Pyrimidine-Embedded Medium-Sized
 Azacycles through N-quaternizing Strategy
;
_journal_name_full               'Chemical Science'
_journal_paper_doi               10.1039/C8SC04061C
_journal_year                    2019
_chemical_formula_sum            'C17 H22 N5 O'
_chemical_formula_weight         312.39
_chemical_name_common            CYN-P1
_space_group_crystal_system      triclinic
_space_group_IT_number           2
_space_group_name_Hall           '-P 1'
_space_group_name_H-M_alt        'P -1'
_symmetry_space_group_name_Hall  '-P 1'
_symmetry_space_group_name_H-M   'P -1'
_atom_sites_solution_hydrogens   geom
_audit_update_record
;
2018-09-06 deposited with the CCDC.
2018-10-18 downloaded from the CCDC.
;
_cell_angle_alpha                84.4412(12)
_cell_angle_beta                 86.9004(12)
_cell_angle_gamma                84.1930(12)
_cell_formula_units_Z            4
_cell_length_a                   9.7756(12)
_cell_length_b                   12.9665(16)
_cell_length_c                   12.9912(16)
_cell_measurement_reflns_used    5821
_cell_measurement_temperature    296.(2)
_cell_measurement_theta_max      22.7733
_cell_measurement_theta_min      2.8282
_cell_volume                     1628.9(3)
_computing_cell_refinement       'SAINT V8.34A (Bruker AXS Inc., 2013)'
_computing_data_collection       'Bruker Instrument Service v2014.5.0.0'
_computing_data_reduction        'SAINT V8.34A (Bruker AXS Inc., 2013)'
_computing_structure_refinement  'SHELXL-2013 (Sheldrick, 2013)'
_diffrn_ambient_temperature      296.(2)
_diffrn_detector_area_resol_mean 8.3333
_diffrn_measured_fraction_theta_full 0.990
_diffrn_measured_fraction_theta_max 0.990
_diffrn_measurement_device_type  'Bruker APEX-II CCD'
_diffrn_measurement_method       '\f and \w scans'
_diffrn_radiation_type           MoK\a
_diffrn_radiation_wavelength     0.71073
_diffrn_reflns_av_R_equivalents  0.0701
_diffrn_reflns_av_unetI/netI     0.0543
_diffrn_reflns_limit_h_max       13
_diffrn_reflns_limit_h_min       -13
_diffrn_reflns_limit_k_max       17
_diffrn_reflns_limit_k_min       -17
_diffrn_reflns_limit_l_max       17
_diffrn_reflns_limit_l_min       -17
_diffrn_reflns_number            50448
_diffrn_reflns_theta_full        28.68
_diffrn_reflns_theta_max         28.68
_diffrn_reflns_theta_min         2.83
_exptl_absorpt_coefficient_mu    0.083
_exptl_absorpt_correction_T_max  0.99
_exptl_absorpt_correction_T_min  0.95
_exptl_absorpt_correction_type   multi-scan
_exptl_absorpt_process_details   'SADABS V2012/1 (Bruker AXS Inc.)'
_exptl_crystal_colour            colourless
_exptl_crystal_density_diffrn    1.274
_exptl_crystal_density_method    'not measured'
_exptl_crystal_description       block
_exptl_crystal_F_000             668
_exptl_crystal_size_max          0.160
_exptl_crystal_size_mid          0.150
_exptl_crystal_size_min          0.100
_refine_diff_density_max         0.519
_refine_diff_density_min         -0.208
_refine_ls_extinction_method     none
_refine_ls_goodness_of_fit_ref   1.014
_refine_ls_hydrogen_treatment    constr
_refine_ls_matrix_type           full
_refine_ls_number_parameters     419
_refine_ls_number_reflns         8325
_refine_ls_number_restraints     0
_refine_ls_restrained_S_all      1.014
_refine_ls_R_factor_all          0.1345
_refine_ls_R_factor_gt           0.0657
_refine_ls_shift/su_max          0.000
_refine_ls_shift/su_mean         0.000
_refine_ls_structure_factor_coef Fsqd
_refine_ls_weighting_details
'w=1/[\s^2^(Fo^2^)+(0.0665P)^2^+0.5658P] where P=(Fo^2^+2Fc^2^)/3'
_refine_ls_weighting_scheme      calc
_refine_ls_wR_factor_gt          0.1432
_refine_ls_wR_factor_ref         0.1765
_reflns_number_gt                4482
_reflns_number_total             8325
_reflns_threshold_expression     'I > 2\s(I)'
_cod_data_source_file            c8sc04061c2.cif
_cod_data_source_block           I_CCDC1
_cod_database_code               1550052
_shelx_res_file
;
TITL ye866P-1 in P-1
CELL 0.71073   9.77560  12.96650  12.99120  84.4412  86.9004  84.1930
ZERR   4.00   0.00120   0.00160   0.00160   0.0012   0.0012   0.0012
LATT 1
SFAC C  H  N  O
UNIT 68  88  20  4
L.S. 5
ACTA
BOND $H
FMAP 2
PLAN 0
SIZE 0.10 0.15 0.16
TEMP 23.000
WGHT    0.066500    0.565800
FVAR       0.16152
MOLE 1
C11   1    0.482303   -0.389694    0.573555    11.00000    0.09747    0.07155 =
         0.12325   -0.04717   -0.00001   -0.00389
AFIX 137
H11A  2    0.394328   -0.379242    0.542720    11.00000   -1.50000
H11B  2    0.512231   -0.462744    0.581374    11.00000   -1.50000
H11C  2    0.548053   -0.353789    0.529891    11.00000   -1.50000
AFIX   0
C12   1    0.440687   -0.244518    0.673784    11.00000    0.03387    0.04475 =
         0.06765   -0.00555   -0.00057   -0.00109
C13   1    0.446159   -0.207806    0.768906    11.00000    0.05470    0.06229 =
         0.05317    0.00093    0.00218    0.00416
AFIX  43
H13   2    0.465380   -0.253819    0.826925    11.00000   -1.20000
AFIX   0
C14   1    0.423113   -0.102801    0.777983    11.00000    0.05053    0.06921 =
         0.06378   -0.02357    0.00242    0.00279
AFIX  43
H14   2    0.428030   -0.078697    0.842688    11.00000   -1.20000
AFIX   0
C15   1    0.392778   -0.031614    0.693886    11.00000    0.03304    0.04630 =
         0.08370   -0.01150   -0.00410    0.00610
C16   1    0.384395   -0.070991    0.599946    11.00000    0.05203    0.05858 =
         0.07225    0.00611   -0.01924    0.00458
AFIX  43
H16   2    0.362100   -0.025380    0.542244    11.00000   -1.20000
AFIX   0
C17   1    0.408261   -0.176790    0.588906    11.00000    0.05432    0.06152 =
         0.06288   -0.01508   -0.01560   -0.00213
AFIX  43
H17   2    0.402325   -0.201510    0.524599    11.00000   -1.20000
AFIX   0
C18   1    0.376033    0.083457    0.703719    11.00000    0.04120    0.05003 =
         0.14151   -0.02399   -0.00222    0.00530
AFIX  23
H18A  2    0.428465    0.098192    0.760966    11.00000   -1.20000
H18B  2    0.413180    0.119419    0.641049    11.00000   -1.20000
AFIX   0
C19   1    0.198056    0.228571    0.720455    11.00000    0.04196    0.03812 =
         0.05120   -0.00857   -0.00843   -0.00406
C110  1    0.264822    0.390210    0.689681    11.00000    0.05079    0.04285 =
         0.08567   -0.00650    0.00020   -0.01744
AFIX  43
H110  2    0.335730    0.432287    0.672289    11.00000   -1.20000
AFIX   0
C111  1    0.040778    0.378572    0.741270    11.00000    0.04550    0.03299 =
         0.04091   -0.00672   -0.00451   -0.00393
C112  1   -0.220555    0.402004    0.769125    11.00000    0.04828    0.04264 =
         0.06810   -0.00755    0.00482    0.00488
AFIX  23
H11D  2   -0.284576    0.462589    0.779932    11.00000   -1.20000
H11E  2   -0.225306    0.354449    0.831344    11.00000   -1.20000
AFIX   0
C113  1   -0.268859    0.349010    0.679618    11.00000    0.05442    0.05353 =
         0.07169    0.00220   -0.01475   -0.00162
AFIX  23
H11F  2   -0.278178    0.400284    0.620264    11.00000   -1.20000
H11G  2   -0.359781    0.327687    0.698787    11.00000   -1.20000
AFIX   0
C114  1   -0.177331    0.253772    0.645685    11.00000    0.05029    0.06101 =
         0.04930   -0.01097   -0.00668   -0.01378
AFIX  23
H11H  2   -0.226152    0.223539    0.594786    11.00000   -1.20000
H11I  2   -0.095311    0.278738    0.610493    11.00000   -1.20000
AFIX   0
C115  1   -0.040394    0.200270    0.798911    11.00000    0.04651    0.03380 =
         0.04354   -0.00168    0.00362    0.00037
AFIX  23
H11J  2    0.006619    0.137571    0.832599    11.00000   -1.20000
H11K  2   -0.095487    0.235639    0.851656    11.00000   -1.20000
AFIX   0
C116  1    0.065366    0.269706    0.752637    11.00000    0.04100    0.03270 =
         0.03698   -0.00563   -0.00393   -0.00314
C117  1   -0.247788    0.120880    0.777003    11.00000    0.05219    0.05518 =
         0.11167   -0.00061    0.01803   -0.01647
AFIX 137
H11L  2   -0.297732    0.168372    0.821009    11.00000   -1.50000
H11M  2   -0.213055    0.059271    0.818183    11.00000   -1.50000
H11N  2   -0.308009    0.102478    0.727202    11.00000   -1.50000
AFIX   0
C21   1    0.316665    0.072755    1.018995    11.00000    0.09534    0.04129 =
         0.11973    0.00440    0.00951   -0.01520
AFIX 137
H21A  2    0.289790    0.087021    1.088762    11.00000   -1.50000
H21B  2    0.364484    0.004324    1.019198    11.00000   -1.50000
H21C  2    0.236231    0.076451    0.979045    11.00000   -1.50000
AFIX   0
C22   1    0.352584    0.249687    0.971906    11.00000    0.04737    0.03759 =
         0.04976    0.00235   -0.00446   -0.00193
C23   1    0.441136    0.321071    0.931095    11.00000    0.04630    0.05037 =
         0.08591   -0.00397    0.01752   -0.00236
AFIX  43
H23   2    0.529377    0.298171    0.907304    11.00000   -1.20000
AFIX   0
C24   1    0.399460    0.425965    0.925448    11.00000    0.05578    0.04513 =
         0.07967    0.00579    0.00882   -0.01313
AFIX  43
H24   2    0.459938    0.473071    0.896999    11.00000   -1.20000
AFIX   0
C25   1    0.269558    0.462872    0.961168    11.00000    0.05077    0.04088 =
         0.04437    0.00371   -0.01132    0.00167
C26   1    0.184074    0.390093    1.002742    11.00000    0.04333    0.05526 =
         0.07083    0.00512    0.00462    0.00430
AFIX  43
H26   2    0.096725    0.412878    1.028414    11.00000   -1.20000
AFIX   0
C27   1    0.223272    0.284351    1.007747    11.00000    0.04603    0.04997 =
         0.07125    0.00873    0.00531   -0.00901
AFIX  43
H27   2    0.162414    0.237108    1.035205    11.00000   -1.20000
AFIX   0
C28   1    0.225335    0.577301    0.959301    11.00000    0.06848    0.04570 =
         0.05212   -0.00136   -0.01850    0.00363
AFIX  23
H28A  2    0.157891    0.589160    1.015519    11.00000   -1.20000
H28B  2    0.304243    0.613940    0.970390    11.00000   -1.20000
AFIX   0
C29   1    0.126207    0.723532    0.845612    11.00000    0.03180    0.03120 =
         0.04076   -0.00487    0.00107   -0.00631
C210  1    0.105163    0.880265    0.910366    11.00000    0.05559    0.03901 =
         0.05391   -0.01508   -0.00509   -0.00948
AFIX  43
H210  2    0.118356    0.919100    0.964932    11.00000   -1.20000
AFIX   0
C211  1    0.033659    0.877122    0.746929    11.00000    0.03603    0.03302 =
         0.04812   -0.00230   -0.00133   -0.00645
C212  1   -0.094181    0.906283    0.578962    11.00000    0.05930    0.04110 =
         0.05654    0.01046   -0.01475   -0.00253
AFIX  23
H21D  2   -0.025462    0.867173    0.537678    11.00000   -1.20000
H21E  2   -0.126315    0.968822    0.536515    11.00000   -1.20000
AFIX   0
C213  1   -0.215205    0.841064    0.604160    11.00000    0.04867    0.04694 =
         0.07701    0.00130   -0.01954   -0.00118
AFIX  23
H21F  2   -0.244125    0.819911    0.539757    11.00000   -1.20000
H21G  2   -0.291110    0.885412    0.632396    11.00000   -1.20000
AFIX   0
C214  1   -0.191031    0.743168    0.679855    11.00000    0.03378    0.04512 =
         0.05691   -0.00364   -0.00120   -0.00739
AFIX  23
H21H  2   -0.180725    0.765648    0.747852    11.00000   -1.20000
H21I  2   -0.273725    0.707186    0.683898    11.00000   -1.20000
AFIX   0
C215  1    0.062553    0.706524    0.662146    11.00000    0.03771    0.03423 =
         0.03734   -0.00303   -0.00001   -0.00409
AFIX  23
H21J  2    0.081124    0.748622    0.598002    11.00000   -1.20000
H21K  2    0.132378    0.647744    0.667033    11.00000   -1.20000
AFIX   0
C216  1    0.073566    0.770285    0.751249    11.00000    0.02983    0.02968 =
         0.03954   -0.00247   -0.00050   -0.00425
C217  1   -0.085335    0.621317    0.560866    11.00000    0.07161    0.05632 =
         0.04824   -0.01394   -0.00989   -0.01630
AFIX 137
H21L  2   -0.168561    0.587501    0.563518    11.00000   -1.50000
H21M  2   -0.007664    0.571253    0.550642    11.00000   -1.50000
H21N  2   -0.087182    0.675079    0.504551    11.00000   -1.50000
AFIX   0
N11   3    0.232037    0.123306    0.721028    11.00000    0.03867    0.03565 =
         0.08939   -0.01472   -0.00591    0.00577
N12   3    0.299753    0.289285    0.687922    11.00000    0.04209    0.04355 =
         0.08480   -0.01044   -0.00137   -0.00920
N13   3    0.143987    0.440368    0.712499    11.00000    0.05180    0.03432 =
         0.06974   -0.00773   -0.00465   -0.00894
N14   3   -0.082265    0.435093    0.756611    11.00000    0.05090    0.03170 =
         0.06578   -0.01170   -0.00065    0.00121
AFIX  43
H14A  2   -0.077681    0.500650    0.759351    11.00000   -1.20000
AFIX   0
N15   3   -0.132988    0.170370    0.723152    11.00000    0.04077    0.03822 =
         0.05825   -0.00730    0.00382   -0.00993
N21   3    0.165660    0.619624    0.860955    11.00000    0.04785    0.03201 =
         0.04268    0.00196   -0.00898    0.00184
N22   3    0.140993    0.778990    0.927463    11.00000    0.04845    0.03620 =
         0.04526   -0.00927   -0.00650   -0.00563
N23   3    0.053681    0.934342    0.827816    11.00000    0.05476    0.02910 =
         0.05965   -0.00769   -0.00907   -0.00519
N24   3   -0.028043    0.936951    0.667086    11.00000    0.05713    0.02893 =
         0.06350    0.00400   -0.01618   -0.00462
AFIX  43
H24A  2   -0.027733    1.003005    0.669264    11.00000   -1.20000
AFIX   0
N25   3   -0.074018    0.667351    0.658518    11.00000    0.04022    0.03444 =
         0.03946   -0.00695   -0.00124   -0.00736
O11   4    0.471096   -0.350851    0.670586    11.00000    0.06895    0.05131 =
         0.09700   -0.01402    0.00271   -0.00187
O21   4    0.403981    0.146832    0.974935    11.00000    0.06886    0.03819 =
         0.08762    0.00138    0.00577   -0.00122
HKLF 4

REM  ye866P-1 in P-1
REM R1 =  0.0657 for    4482 Fo > 4sig(Fo)  and  0.1345 for all    8325 data
REM    419 parameters refined using      0 restraints

END

WGHT      0.0640      0.6070

REM Highest difference peak  0.519,  deepest hole -0.208,  1-sigma level  0.041
Q1    1   0.1428  0.5728  0.8102  11.00000  0.05    0.52
Q2    1   0.1576  0.0764  0.7430  11.00000  0.05    0.50
Q3    1  -0.1091  0.6211  0.7170  11.00000  0.05    0.22
Q4    1   0.0531  0.7399  0.8106  11.00000  0.05    0.21
Q5    1  -0.0773  0.5062  0.7121  11.00000  0.05    0.20
Q6    1   0.1406  0.7522  0.7865  11.00000  0.05    0.20
Q7    1   0.1821  0.5962  0.9026  11.00000  0.05    0.20
Q8    1   0.2705  0.1068  0.7030  11.00000  0.05    0.17
Q9    1   0.0659  0.3148  0.7814  11.00000  0.05    0.17
Q10   1  -0.0712  0.1601  0.6191  11.00000  0.05    0.16
Q11   1  -0.0765  1.0048  0.7050  11.00000  0.05    0.16
Q12   1   0.1987  0.6483  0.8362  11.00000  0.05    0.16
Q13   1   0.0395  0.2378  0.7984  11.00000  0.05    0.16
Q14   1   0.3810  0.2834  0.9158  11.00000  0.05    0.15
Q15   1   0.5043 -0.4120  0.7524  11.00000  0.05    0.15
Q16   1   0.2060  0.1684  0.6902  11.00000  0.05    0.15
Q17   1   0.0680  0.4185  0.6920  11.00000  0.05    0.15
Q18   1   0.0373  0.3183  0.7146  11.00000  0.05    0.14
Q19   1   0.4361  0.1332  0.7079  11.00000  0.05    0.14
Q20   1   0.1151  0.7552  0.8827  11.00000  0.05    0.14
;
_shelx_res_checksum              32705
loop_
_space_group_symop_operation_xyz
'x, y, z'
'-x, -y, -z'
loop_
_atom_site_type_symbol
_atom_site_label
_atom_site_fract_x
_atom_site_fract_y
_atom_site_fract_z
_atom_site_U_iso_or_equiv
_atom_site_adp_type
_atom_site_calc_flag
_atom_site_refinement_flags_adp
_atom_site_refinement_flags_posn
_atom_site_occupancy
C C11 0.4823(4) -0.3897(3) 0.5736(3) 0.0954(12) Uani d . . 1
H H11A 0.3943 -0.3792 0.5427 0.143 Uiso calc U R 1
H H11B 0.5122 -0.4627 0.5814 0.143 Uiso calc U R 1
H H11C 0.5481 -0.3538 0.5299 0.143 Uiso calc U R 1
C C12 0.4407(2) -0.24452(18) 0.6738(2) 0.0490(6) Uani d . . 1
C C13 0.4462(3) -0.2078(2) 0.7689(2) 0.0580(7) Uani d . . 1
H H13 0.4654 -0.2538 0.8269 0.07 Uiso calc U R 1
C C14 0.4231(3) -0.1028(2) 0.7780(2) 0.0608(7) Uani d . . 1
H H14 0.428 -0.0787 0.8427 0.073 Uiso calc U R 1
C C15 0.3928(2) -0.03161(19) 0.6939(2) 0.0546(7) Uani d . . 1
C C16 0.3844(3) -0.0710(2) 0.5999(2) 0.0618(7) Uani d . . 1
H H16 0.3621 -0.0254 0.5422 0.074 Uiso calc U R 1
C C17 0.4083(3) -0.1768(2) 0.5889(2) 0.0587(7) Uani d . . 1
H H17 0.4023 -0.2015 0.5246 0.07 Uiso calc U R 1
C C18 0.3760(3) 0.0835(2) 0.7037(3) 0.0773(10) Uani d . . 1
H H18A 0.4285 0.0982 0.761 0.093 Uiso calc U R 1
H H18B 0.4132 0.1194 0.641 0.093 Uiso calc U R 1
C C19 0.1981(2) 0.22857(17) 0.72046(18) 0.0432(5) Uani d . . 1
C C110 0.2648(3) 0.39021(19) 0.6897(2) 0.0590(7) Uani d . . 1
H H110 0.3357 0.4323 0.6723 0.071 Uiso calc U R 1
C C111 0.0408(2) 0.37857(16) 0.74127(17) 0.0395(5) Uani d . . 1
C C112 -0.2206(3) 0.40200(19) 0.7691(2) 0.0538(6) Uani d . . 1
H H11D -0.2846 0.4626 0.7799 0.065 Uiso calc U R 1
H H11E -0.2253 0.3544 0.8313 0.065 Uiso calc U R 1
C C113 -0.2689(3) 0.3490(2) 0.6796(2) 0.0602(7) Uani d . . 1
H H11F -0.2782 0.4003 0.6203 0.072 Uiso calc U R 1
H H11G -0.3598 0.3277 0.6988 0.072 Uiso calc U R 1
C C114 -0.1773(3) 0.25377(19) 0.64569(19) 0.0524(6) Uani d . . 1
H H11H -0.2262 0.2235 0.5948 0.063 Uiso calc U R 1
H H11I -0.0953 0.2787 0.6105 0.063 Uiso calc U R 1
C C115 -0.0404(2) 0.20027(16) 0.79891(17) 0.0419(5) Uani d . . 1
H H11J 0.0066 0.1376 0.8326 0.05 Uiso calc U R 1
H H11K -0.0955 0.2356 0.8517 0.05 Uiso calc U R 1
C C116 0.0654(2) 0.26971(15) 0.75264(16) 0.0367(5) Uani d . . 1
C C117 -0.2478(3) 0.1209(2) 0.7770(3) 0.0735(9) Uani d . . 1
H H11L -0.2977 0.1684 0.821 0.11 Uiso calc U R 1
H H11M -0.2131 0.0593 0.8182 0.11 Uiso calc U R 1
H H11N -0.308 0.1025 0.7272 0.11 Uiso calc U R 1
C C21 0.3167(4) 0.0728(2) 1.0190(3) 0.0862(10) Uani d . . 1
H H21A 0.2898 0.087 1.0888 0.129 Uiso calc U R 1
H H21B 0.3645 0.0043 1.0192 0.129 Uiso calc U R 1
H H21C 0.2362 0.0765 0.979 0.129 Uiso calc U R 1
C C22 0.3526(2) 0.24969(17) 0.97191(18) 0.0454(6) Uani d . . 1
C C23 0.4411(3) 0.3211(2) 0.9311(2) 0.0619(7) Uani d . . 1
H H23 0.5294 0.2982 0.9073 0.074 Uiso calc U R 1
C C24 0.3995(3) 0.4260(2) 0.9254(2) 0.0608(7) Uani d . . 1
H H24 0.4599 0.4731 0.897 0.073 Uiso calc U R 1
C C25 0.2696(3) 0.46287(18) 0.96117(18) 0.0459(6) Uani d . . 1
C C26 0.1841(3) 0.3901(2) 1.0027(2) 0.0581(7) Uani d . . 1
H H26 0.0967 0.4129 1.0284 0.07 Uiso calc U R 1
C C27 0.2233(3) 0.2844(2) 1.0077(2) 0.0567(7) Uani d . . 1
H H27 0.1624 0.2371 1.0352 0.068 Uiso calc U R 1
C C28 0.2253(3) 0.57730(18) 0.9593(2) 0.0557(7) Uani d . . 1
H H28A 0.1579 0.5892 1.0155 0.067 Uiso calc U R 1
H H28B 0.3042 0.6139 0.9704 0.067 Uiso calc U R 1
C C29 0.1262(2) 0.72353(15) 0.84561(16) 0.0344(5) Uani d . . 1
C C210 0.1052(3) 0.88027(17) 0.9104(2) 0.0484(6) Uani d . . 1
H H210 0.1184 0.9191 0.9649 0.058 Uiso calc U R 1
C C211 0.0337(2) 0.87712(16) 0.74693(17) 0.0390(5) Uani d . . 1
C C212 -0.0942(3) 0.90628(18) 0.5790(2) 0.0530(6) Uani d . . 1
H H21D -0.0255 0.8672 0.5377 0.064 Uiso calc U R 1
H H21E -0.1263 0.9688 0.5365 0.064 Uiso calc U R 1
C C213 -0.2152(3) 0.84106(19) 0.6042(2) 0.0576(7) Uani d . . 1
H H21F -0.2441 0.8199 0.5398 0.069 Uiso calc U R 1
H H21G -0.2911 0.8854 0.6324 0.069 Uiso calc U R 1
C C214 -0.1910(2) 0.74317(17) 0.67985(19) 0.0451(6) Uani d . . 1
H H21H -0.1807 0.7656 0.7479 0.054 Uiso calc U R 1
H H21I -0.2737 0.7072 0.6839 0.054 Uiso calc U R 1
C C215 0.0626(2) 0.70652(16) 0.66215(16) 0.0365(5) Uani d . . 1
H H21J 0.0811 0.7486 0.598 0.044 Uiso calc U R 1
H H21K 0.1324 0.6477 0.667 0.044 Uiso calc U R 1
C C216 0.0736(2) 0.77028(15) 0.75125(16) 0.0330(4) Uani d . . 1
C C217 -0.0853(3) 0.6213(2) 0.56087(19) 0.0572(7) Uani d . . 1
H H21L -0.1686 0.5875 0.5635 0.086 Uiso calc U R 1
H H21M -0.0077 0.5713 0.5506 0.086 Uiso calc U R 1
H H21N -0.0872 0.6751 0.5046 0.086 Uiso calc U R 1
N N11 0.2320(2) 0.12331(14) 0.72103(18) 0.0545(6) Uani d . . 1
N N12 0.2998(2) 0.28929(15) 0.68792(18) 0.0562(6) Uani d . . 1
N N13 0.1440(2) 0.44037(14) 0.71250(17) 0.0514(5) Uani d . . 1
N N14 -0.0823(2) 0.43509(14) 0.75661(16) 0.0494(5) Uani d . . 1
H H14A -0.0777 0.5006 0.7594 0.059 Uiso calc U R 1
N N15 -0.13299(19) 0.17037(14) 0.72315(15) 0.0454(5) Uani d . . 1
N N21 0.16566(19) 0.61962(13) 0.86095(14) 0.0413(4) Uani d . . 1
N N22 0.1410(2) 0.77899(14) 0.92746(14) 0.0427(5) Uani d . . 1
N N23 0.0537(2) 0.93434(13) 0.82782(16) 0.0473(5) Uani d . . 1
N N24 -0.0280(2) 0.93695(14) 0.66709(16) 0.0499(5) Uani d . . 1
H H24A -0.0277 1.003 0.6693 0.06 Uiso calc U R 1
N N25 -0.07402(18) 0.66735(13) 0.65852(13) 0.0376(4) Uani d . . 1
O O11 0.4711(2) -0.35085(14) 0.67059(17) 0.0725(6) Uani d . . 1
O O21 0.4040(2) 0.14683(13) 0.97493(15) 0.0660(5) Uani d . . 1
loop_
_atom_site_aniso_label
_atom_site_aniso_U_11
_atom_site_aniso_U_22
_atom_site_aniso_U_33
_atom_site_aniso_U_12
_atom_site_aniso_U_13
_atom_site_aniso_U_23
C11 0.097(3) 0.072(2) 0.123(3) -0.0039(19) 0.000(2) -0.047(2)
C12 0.0339(12) 0.0448(13) 0.0677(17) -0.0011(10) -0.0006(11) -0.0055(12)
C13 0.0547(16) 0.0623(17) 0.0532(16) 0.0042(13) 0.0022(12) 0.0009(13)
C14 0.0505(16) 0.0692(18) 0.0638(18) 0.0028(13) 0.0024(13) -0.0236(15)
C15 0.0330(13) 0.0463(14) 0.084(2) 0.0061(11) -0.0041(12) -0.0115(14)
C16 0.0520(16) 0.0586(17) 0.0722(19) 0.0046(13) -0.0192(14) 0.0061(14)
C17 0.0543(16) 0.0615(17) 0.0629(17) -0.0021(13) -0.0156(13) -0.0151(14)
C18 0.0412(15) 0.0500(16) 0.142(3) 0.0053(12) -0.0022(17) -0.0240(17)
C19 0.0420(13) 0.0381(12) 0.0512(14) -0.0041(10) -0.0084(11) -0.0086(10)
C110 0.0508(16) 0.0429(14) 0.086(2) -0.0174(12) 0.0002(14) -0.0065(13)
C111 0.0455(13) 0.0330(11) 0.0409(12) -0.0039(10) -0.0045(10) -0.0067(9)
C112 0.0483(15) 0.0426(13) 0.0681(17) 0.0049(11) 0.0048(12) -0.0075(12)
C113 0.0544(16) 0.0535(15) 0.0717(18) -0.0016(13) -0.0147(14) 0.0022(13)
C114 0.0503(15) 0.0610(16) 0.0493(14) -0.0138(12) -0.0067(12) -0.0110(12)
C115 0.0465(13) 0.0338(11) 0.0435(13) 0.0004(10) 0.0036(10) -0.0017(10)
C116 0.0410(12) 0.0327(11) 0.0370(12) -0.0031(9) -0.0039(9) -0.0056(9)
C117 0.0522(17) 0.0552(16) 0.112(3) -0.0165(13) 0.0180(16) -0.0006(16)
C21 0.095(3) 0.0413(16) 0.120(3) -0.0152(16) 0.010(2) 0.0044(17)
C22 0.0474(14) 0.0376(12) 0.0498(14) -0.0019(10) -0.0045(11) 0.0024(10)
C23 0.0463(15) 0.0504(15) 0.086(2) -0.0024(12) 0.0175(14) -0.0040(14)
C24 0.0558(17) 0.0451(14) 0.080(2) -0.0131(12) 0.0088(14) 0.0058(13)
C25 0.0508(15) 0.0409(12) 0.0444(13) 0.0017(11) -0.0113(11) 0.0037(10)
C26 0.0433(14) 0.0553(16) 0.0708(18) 0.0043(12) 0.0046(13) 0.0051(13)
C27 0.0460(15) 0.0500(15) 0.0713(18) -0.0090(12) 0.0053(13) 0.0087(13)
C28 0.0685(18) 0.0457(14) 0.0521(15) 0.0036(12) -0.0185(13) -0.0014(11)
C29 0.0318(11) 0.0312(10) 0.0408(12) -0.0063(9) 0.0011(9) -0.0049(9)
C210 0.0556(15) 0.0390(13) 0.0539(15) -0.0095(11) -0.0051(12) -0.0151(11)
C211 0.0360(12) 0.0330(11) 0.0481(13) -0.0065(9) -0.0013(10) -0.0023(10)
C212 0.0593(16) 0.0411(13) 0.0565(16) -0.0025(11) -0.0148(12) 0.0105(11)
C213 0.0487(15) 0.0469(14) 0.0770(19) -0.0012(12) -0.0195(13) 0.0013(13)
C214 0.0338(12) 0.0451(13) 0.0569(15) -0.0074(10) -0.0012(11) -0.0036(11)
C215 0.0377(12) 0.0342(11) 0.0373(12) -0.0041(9) 0.0000(9) -0.0030(9)
C216 0.0298(11) 0.0297(10) 0.0395(12) -0.0042(8) -0.0005(9) -0.0025(9)
C217 0.0716(18) 0.0563(15) 0.0482(15) -0.0163(13) -0.0099(13) -0.0139(12)
N11 0.0387(11) 0.0357(10) 0.0894(16) 0.0058(9) -0.0059(11) -0.0147(10)
N12 0.0421(12) 0.0435(12) 0.0848(16) -0.0092(9) -0.0014(11) -0.0104(11)
N13 0.0518(13) 0.0343(10) 0.0697(14) -0.0089(9) -0.0046(11) -0.0077(9)
N14 0.0509(12) 0.0317(10) 0.0658(14) 0.0012(9) -0.0006(10) -0.0117(9)
N15 0.0408(11) 0.0382(10) 0.0583(12) -0.0099(8) 0.0038(9) -0.0073(9)
N21 0.0478(11) 0.0320(9) 0.0427(11) 0.0018(8) -0.0090(9) 0.0020(8)
N22 0.0484(11) 0.0362(10) 0.0453(11) -0.0056(8) -0.0065(9) -0.0093(8)
N23 0.0548(12) 0.0291(9) 0.0597(13) -0.0052(9) -0.0091(10) -0.0077(9)
N24 0.0571(13) 0.0289(9) 0.0635(13) -0.0046(9) -0.0162(10) 0.0040(9)
N25 0.0402(10) 0.0344(9) 0.0395(10) -0.0074(8) -0.0012(8) -0.0070(8)
O11 0.0690(13) 0.0513(11) 0.0970(16) -0.0019(10) 0.0027(11) -0.0140(11)
O21 0.0689(13) 0.0382(9) 0.0876(14) -0.0012(9) 0.0058(10) 0.0014(9)
loop_
_atom_type_symbol
_atom_type_description
_atom_type_scat_dispersion_real
_atom_type_scat_dispersion_imag
_atom_type_scat_source
C C 0.0033 0.0016 'International Tables Vol C Tables 4.2.6.8 and 6.1.1.4'
H H 0.0000 0.0000 'International Tables Vol C Tables 4.2.6.8 and 6.1.1.4'
N N 0.0061 0.0033 'International Tables Vol C Tables 4.2.6.8 and 6.1.1.4'
O O 0.0106 0.0060 'International Tables Vol C Tables 4.2.6.8 and 6.1.1.4'
loop_
_geom_angle_atom_site_label_1
_geom_angle_atom_site_label_2
_geom_angle_atom_site_label_3
_geom_angle
O11 C11 H11A 109.5
O11 C11 H11B 109.5
H11A C11 H11B 109.5
O11 C11 H11C 109.5
H11A C11 H11C 109.5
H11B C11 H11C 109.5
C17 C12 C13 120.0(2)
C17 C12 O11 124.0(2)
C13 C12 O11 116.0(2)
C12 C13 C14 119.7(3)
C12 C13 H13 120.2
C14 C13 H13 120.2
C13 C14 C15 122.1(3)
C13 C14 H14 118.9
C15 C14 H14 118.9
C16 C15 C14 116.9(2)
C16 C15 C18 121.5(3)
C14 C15 C18 121.5(3)
C15 C16 C17 121.9(3)
C15 C16 H16 119.0
C17 C16 H16 119.0
C12 C17 C16 119.3(3)
C12 C17 H17 120.3
C16 C17 H17 120.3
N11 C18 C15 112.4(2)
N11 C18 H18A 109.1
C15 C18 H18A 109.1
N11 C18 H18B 109.1
C15 C18 H18B 109.1
H18A C18 H18B 107.9
N12 C19 N11 115.8(2)
N12 C19 C116 122.8(2)
N11 C19 C116 121.4(2)
N12 C110 N13 129.6(2)
N12 C110 H110 115.2
N13 C110 H110 115.2
N14 C111 N13 112.14(19)
N14 C111 C116 126.3(2)
N13 C111 C116 121.6(2)
N14 C112 C113 116.1(2)
N14 C112 H11D 108.3
C113 C112 H11D 108.3
N14 C112 H11E 108.3
C113 C112 H11E 108.3
H11D C112 H11E 107.4
C112 C113 C114 116.9(2)
C112 C113 H11F 108.1
C114 C113 H11F 108.1
C112 C113 H11G 108.1
C114 C113 H11G 108.1
H11F C113 H11G 107.3
N15 C114 C113 119.3(2)
N15 C114 H11H 107.5
C113 C114 H11H 107.5
N15 C114 H11I 107.5
C113 C114 H11I 107.5
H11H C114 H11I 107.0
N15 C115 C116 114.08(18)
N15 C115 H11J 108.7
C116 C115 H11J 108.7
N15 C115 H11K 108.7
C116 C115 H11K 108.7
H11J C115 H11K 107.6
C111 C116 C19 115.8(2)
C111 C116 C115 122.80(19)
C19 C116 C115 121.41(19)
N15 C117 H11L 109.5
N15 C117 H11M 109.5
H11L C117 H11M 109.5
N15 C117 H11N 109.5
H11L C117 H11N 109.5
H11M C117 H11N 109.5
O21 C21 H21A 109.5
O21 C21 H21B 109.5
H21A C21 H21B 109.5
O21 C21 H21C 109.5
H21A C21 H21C 109.5
H21B C21 H21C 109.5
C27 C22 O21 124.7(2)
C27 C22 C23 119.4(2)
O21 C22 C23 116.0(2)
C24 C23 C22 120.3(2)
C24 C23 H23 119.9
C22 C23 H23 119.9
C23 C24 C25 121.4(2)
C23 C24 H24 119.3
C25 C24 H24 119.3
C26 C25 C24 117.1(2)
C26 C25 C28 121.1(2)
C24 C25 C28 121.7(2)
C25 C26 C27 122.4(2)
C25 C26 H26 118.8
C27 C26 H26 118.8
C22 C27 C26 119.5(2)
C22 C27 H27 120.3
C26 C27 H27 120.3
N21 C28 C25 112.18(19)
N21 C28 H28A 109.2
C25 C28 H28A 109.2
N21 C28 H28B 109.2
C25 C28 H28B 109.2
H28A C28 H28B 107.9
N22 C29 N21 115.35(19)
N22 C29 C216 122.46(18)
N21 C29 C216 122.19(18)
N23 C210 N22 129.8(2)
N23 C210 H210 115.1
N22 C210 H210 115.1
N24 C211 N23 112.00(19)
N24 C211 C216 126.5(2)
N23 C211 C216 121.5(2)
N24 C212 C213 116.0(2)
N24 C212 H21D 108.3
C213 C212 H21D 108.3
N24 C212 H21E 108.3
C213 C212 H21E 108.3
H21D C212 H21E 107.4
C212 C213 C214 117.1(2)
C212 C213 H21F 108.0
C214 C213 H21F 108.0
C212 C213 H21G 108.0
C214 C213 H21G 108.0
H21F C213 H21G 107.3
N25 C214 C213 118.5(2)
N25 C214 H21H 107.7
C213 C214 H21H 107.7
N25 C214 H21I 107.7
C213 C214 H21I 107.7
H21H C214 H21I 107.1
N25 C215 C216 113.34(17)
N25 C215 H21J 108.9
C216 C215 H21J 108.9
N25 C215 H21K 108.9
C216 C215 H21K 108.9
H21J C215 H21K 107.7
C211 C216 C29 116.24(18)
C211 C216 C215 123.16(19)
C29 C216 C215 120.60(18)
N25 C217 H21L 109.5
N25 C217 H21M 109.5
H21L C217 H21M 109.5
N25 C217 H21N 109.5
H21L C217 H21N 109.5
H21M C217 H21N 109.5
C19 N11 C18 119.4(2)
C110 N12 C19 114.5(2)
C110 N13 C111 115.28(19)
C111 N14 C112 130.09(19)
C111 N14 H14A 115.0
C112 N14 H14A 115.0
C114 N15 C117 112.9(2)
C114 N15 C115 114.47(17)
C117 N15 C115 110.0(2)
C29 N21 C28 119.15(18)
C210 N22 C29 114.53(19)
C210 N23 C211 115.28(18)
C211 N24 C212 129.92(19)
C211 N24 H24A 115.0
C212 N24 H24A 115.0
C214 N25 C217 112.27(18)
C214 N25 C215 114.70(16)
C217 N25 C215 110.31(17)
C12 O11 C11 117.7(2)
C22 O21 C21 116.9(2)
loop_
_geom_bond_atom_site_label_1
_geom_bond_atom_site_label_2
_geom_bond_distance
C11 O11 1.397(4)
C11 H11A 0.96
C11 H11B 0.96
C11 H11C 0.96
C12 C17 1.372(4)
C12 C13 1.372(4)
C12 O11 1.385(3)
C13 C14 1.373(4)
C13 H13 0.93
C14 C15 1.385(4)
C14 H14 0.93
C15 C16 1.377(4)
C15 C18 1.502(3)
C16 C17 1.388(4)
C16 H16 0.93
C17 H17 0.93
C18 N11 1.463(3)
C18 H18A 0.97
C18 H18B 0.97
C19 N12 1.355(3)
C19 N11 1.371(3)
C19 C116 1.409(3)
C110 N12 1.321(3)
C110 N13 1.323(3)
C110 H110 0.93
C111 N14 1.359(3)
C111 N13 1.365(3)
C111 C116 1.403(3)
C112 N14 1.455(3)
C112 C113 1.525(4)
C112 H11D 0.97
C112 H11E 0.97
C113 C114 1.536(4)
C113 H11F 0.97
C113 H11G 0.97
C114 N15 1.453(3)
C114 H11H 0.97
C114 H11I 0.97
C115 N15 1.476(3)
C115 C116 1.502(3)
C115 H11J 0.97
C115 H11K 0.97
C117 N15 1.461(3)
C117 H11L 0.96
C117 H11M 0.96
C117 H11N 0.96
C21 O21 1.409(3)
C21 H21A 0.96
C21 H21B 0.96
C21 H21C 0.96
C22 C27 1.371(3)
C22 O21 1.374(3)
C22 C23 1.380(3)
C23 C24 1.376(3)
C23 H23 0.93
C24 C25 1.383(3)
C24 H24 0.93
C25 C26 1.376(3)
C25 C28 1.501(3)
C26 C27 1.382(3)
C26 H26 0.93
C27 H27 0.93
C28 N21 1.468(3)
C28 H28A 0.97
C28 H28B 0.97
C29 N22 1.362(3)
C29 N21 1.362(2)
C29 C216 1.413(3)
C210 N23 1.318(3)
C210 N22 1.325(3)
C210 H210 0.93
C211 N24 1.363(3)
C211 N23 1.377(3)
C211 C216 1.397(3)
C212 N24 1.452(3)
C212 C213 1.526(3)
C212 H21D 0.97
C212 H21E 0.97
C213 C214 1.535(3)
C213 H21F 0.97
C213 H21G 0.97
C214 N25 1.464(3)
C214 H21H 0.97
C214 H21I 0.97
C215 N25 1.480(3)
C215 C216 1.501(3)
C215 H21J 0.97
C215 H21K 0.97
C217 N25 1.467(3)
C217 H21L 0.96
C217 H21M 0.96
C217 H21N 0.96
N14 H14A 0.86
N24 H24A 0.86
