#------------------------------------------------------------------------------
#$Date: 2022-09-20 11:32:02 +0300 (Tue, 20 Sep 2022) $
#$Revision: 277994 $
#$URL: file:///home/coder/svn-repositories/cod/cif/1/55/00/1550097.cif $
#------------------------------------------------------------------------------
#
# This file is available in the Crystallography Open Database (COD),
# http://www.crystallography.net/
#
# All data on this site have been placed in the public domain by the
# contributors.
#
data_1550097
loop_
_publ_author_name
'Sozzani, Piero'
'Xing, Guolong'
'Bassanetti, Irene'
'Bracco, Silvia'
'Negroni, Mattia'
'Bezuidenhout, Charl'
'Ben, Teng'
'Comotti, Angiolina'
_publ_section_title
;
 Double Helix of Opposite Charges to Form Channels with Unique CO2
 Selectivity and Dynamics
;
_journal_name_full               'Chemical Science'
_journal_paper_doi               10.1039/C8SC04376K
_journal_year                    2019
_chemical_formula_moiety         'C25 H16 O12 S4, 2(C8 H12 N4)'
_chemical_formula_sum            'C41 H40 N8 O12 S4'
_chemical_formula_weight         965.05
_chemical_name_systematic        'POS-1 273K'
_space_group_crystal_system      tetragonal
_space_group_IT_number           88
_space_group_name_Hall           '-I 4ad'
_space_group_name_H-M_alt        'I 41/a :2'
_symmetry_space_group_name_Hall  '-I 4ad'
_symmetry_space_group_name_H-M   'I 41/a :2'
_atom_sites_solution_hydrogens   mixed
_atom_sites_solution_primary     direct
_audit_creation_date             2018-08-06
_audit_creation_method
;
Olex2 1.2
(compiled 2018.05.29 svn.r3508 for OlexSys, GUI svn.r5506)
;
_audit_update_record
;
2018-09-01 deposited with the CCDC.
2018-10-22 downloaded from the CCDC.
;
_cell_angle_alpha                90
_cell_angle_beta                 90
_cell_angle_gamma                90
_cell_formula_units_Z            1
_cell_length_a                   25.1179(7)
_cell_length_b                   25.1179(7)
_cell_length_c                   7.6702(5)
_cell_measurement_reflns_used    3468
_cell_measurement_temperature    273(2)
_cell_measurement_theta_max      24.91
_cell_measurement_theta_min      2.78
_cell_volume                     4839.2(4)
_computing_molecular_graphics    'Olex2 (Dolomanov et al., 2009)'
_computing_publication_material  'Olex2 (Dolomanov et al., 2009)'
_computing_structure_refinement  'ShelXL (Sheldrick, 2015)'
_computing_structure_solution    'ShelXS (Sheldrick, 2008)'
_diffrn_ambient_temperature      273.15
_diffrn_measured_fraction_theta_full 0.989
_diffrn_measured_fraction_theta_max 0.989
_diffrn_measurement_device_type  'CCD area detector'
_diffrn_measurement_method       'phi and omega scans'
_diffrn_radiation_monochromator  graphite
_diffrn_radiation_type           MoK\a
_diffrn_radiation_wavelength     0.71073
_diffrn_reflns_av_R_equivalents  0.0638
_diffrn_reflns_av_unetI/netI     0.0837
_diffrn_reflns_Laue_measured_fraction_full 0.989
_diffrn_reflns_Laue_measured_fraction_max 0.989
_diffrn_reflns_limit_h_max       28
_diffrn_reflns_limit_h_min       -26
_diffrn_reflns_limit_k_max       29
_diffrn_reflns_limit_k_min       -9
_diffrn_reflns_limit_l_max       9
_diffrn_reflns_limit_l_min       -8
_diffrn_reflns_number            6929
_diffrn_reflns_point_group_measured_fraction_full 0.989
_diffrn_reflns_point_group_measured_fraction_max 0.989
_diffrn_reflns_theta_full        25.019
_diffrn_reflns_theta_max         25.019
_diffrn_reflns_theta_min         2.293
_exptl_absorpt_coefficient_mu    0.262
_exptl_absorpt_correction_type   none
_exptl_crystal_colour            'clear light colourless'
_exptl_crystal_colour_lustre     clear
_exptl_crystal_colour_modifier   light
_exptl_crystal_colour_primary    colourless
_exptl_crystal_density_diffrn    1.325
_exptl_crystal_description       needle
_exptl_crystal_F_000             2008
_exptl_crystal_size_max          0.733
_exptl_crystal_size_mid          0.023
_exptl_crystal_size_min          0.022
_refine_diff_density_max         0.551
_refine_diff_density_min         -0.924
_refine_diff_density_rms         0.173
_refine_ls_extinction_method     none
_refine_ls_goodness_of_fit_ref   1.153
_refine_ls_hydrogen_treatment    mixed
_refine_ls_matrix_type           full
_refine_ls_number_parameters     158
_refine_ls_number_reflns         2116
_refine_ls_number_restraints     6
_refine_ls_restrained_S_all      1.322
_refine_ls_R_factor_all          0.1280
_refine_ls_R_factor_gt           0.0936
_refine_ls_shift/su_max          0.000
_refine_ls_shift/su_mean         0.000
_refine_ls_structure_factor_coef Fsqd
_refine_ls_weighting_details
'w=1/[\s^2^(Fo^2^)+(0.2000P)^2^] where P=(Fo^2^+2Fc^2^)/3'
_refine_ls_weighting_scheme      calc
_refine_ls_wR_factor_gt          0.2728
_refine_ls_wR_factor_ref         0.3100
_reflns_Friedel_coverage         0.000
_reflns_number_gt                1413
_reflns_number_total             2116
_reflns_threshold_expression     'I > 2\s(I)'
_iucr_refine_instructions_details
;
TITL y1 in I4(1)/a
    pos-1273k.res
    created by SHELXL-2016/6 at 20:32:24 on 01-Aug-2018
CELL 0.71073 25.1179 25.1179 7.6702 90 90 90
ZERR 1 0.0007 0.0007 0.0005 0 0 0
LATT 2
SYMM 0.75-Y,0.25+X,0.25+Z
SYMM -X,0.5-Y,+Z
SYMM 0.25+Y,0.25-X,0.25+Z
SFAC C H N O S
UNIT 164 160 32 48 16
DFIX 1.08 0.01 C3 H3
DFIX 1.08 0.01 C4 H4
DFIX 1.08 0.01 C6 H6
DFIX 1.08 0.01 C7 H7
DFIX 1.08 0.01 C8 H8
DFIX 1.08 0.01 C10 H10

L.S. 40
PLAN  -5 0 0
SIZE 0.733 0.023 0.022
TEMP 0
BOND $H
ABIN
fmap 2 1 53
acta
REM <olex2.extras>
REM <HklSrc "%.\\POS-1%20273K.hkl">
REM </olex2.extras>

WGHT    0.200000
SWAT    0.000000  977.8706
FVAR       0.08167
PART 1
S1    5    0.110186    0.389346    0.084066    11.00000    0.05035    0.04348 =
         0.04397    0.01080    0.00505   -0.00439
O1    4    0.124993    0.353325   -0.053105    11.00000    0.11057    0.06407 =
         0.07658    0.01116    0.06386    0.01142
O2    4    0.154588    0.415014    0.168562    11.00000    0.06730    0.07744 =
         0.12439    0.04658   -0.03759   -0.02516
O3    4    0.071283    0.427905    0.027892    11.00000    0.06151    0.04763 =
         0.03949    0.01066   -0.00934   -0.00232
C1    1    0.000000    0.250000    0.625000    10.25000    0.03788    0.03788 =
         0.02369    0.00000    0.00000    0.00000
C2    1    0.030519    0.287675    0.499610    11.00000    0.04037    0.03378 =
         0.02126   -0.00279   -0.00159   -0.00391
C3    1    0.066759    0.265773    0.383897    11.00000    0.04935    0.03565 =
         0.03135    0.00026    0.00748    0.00452
AFIX  43
H3    2    0.074199    0.229559    0.390514    11.00000   -1.20000
AFIX   0
C4    1    0.091990    0.295949    0.259843    11.00000    0.05698    0.03924 =
         0.02824    0.00315    0.00995    0.00430
H4    2    0.119953    0.278211    0.171045    11.00000   -1.20000
C5    1    0.078895    0.350356    0.245897    11.00000    0.03827    0.04032 =
         0.02762    0.00183   -0.00447    0.00322
C6    1    0.043336    0.372451    0.358109    11.00000    0.05229    0.03223 =
         0.03701    0.00071    0.00569    0.00966
H6    2    0.027009    0.411619    0.344259    11.00000   -1.20000
C7    1    0.018542    0.341195    0.484557    11.00000    0.04068    0.04246 =
         0.03490   -0.00170    0.00669    0.00676
H7    2   -0.013376    0.361451    0.550137    11.00000   -1.20000

N1    3    0.165821    0.364254   -0.381265    11.00000    0.06786    0.06725 =
         0.05368    0.01642    0.01321    0.01644
AFIX  93
H1A   2    0.151649    0.389424   -0.441463    11.00000   -1.20000
H1B   2    0.155817    0.358930   -0.275462    11.00000   -1.20000
AFIX   0
N2    3    0.217709    0.342228   -0.611249    11.00000    0.04968    0.08349 =
         0.04566    0.02010    0.00044    0.00988
AFIX  93
H2A   2    0.203818    0.367276   -0.672680    11.00000   -1.20000
H2B   2    0.241917    0.322134   -0.655491    11.00000   -1.20000
AFIX   0
C8    1    0.242831    0.299579   -0.174826    11.00000    0.05071    0.05558 =
         0.03452   -0.01388    0.00035   -0.00307
AFIX  43
H8    2    0.238556    0.333028   -0.124750    11.00000   -1.20000
AFIX   0
C9    1    0.226271    0.290937   -0.345321    11.00000    0.03178    0.05522 =
         0.03026    0.00691   -0.00078   -0.00206
C10   1    0.234443    0.241003   -0.420905    11.00000    0.04780    0.06113 =
         0.02652   -0.00102   -0.00662    0.00107
AFIX  43
H10   2    0.224535    0.235092   -0.536116    11.00000   -1.20000
AFIX   0
C11   1    0.201901    0.334636   -0.449327    11.00000    0.04016    0.06809 =
         0.03907   -0.00006    0.00203   -0.00164
HKLF 4




REM  y1 in I4(1)/a
REM R1 =  0.0936 for    1413 Fo > 4sig(Fo)  and  0.1280 for all    2116 data
REM    158 parameters refined using      6 restraints

END  
     
WGHT      0.2000      0.0000 

REM Highest difference peak  0.551,  deepest hole -0.924,  1-sigma level  0.173
Q1    1   1.0000  0.2500  0.1707  10.50000  0.05    0.55
Q2    1   0.1416  0.4191 -0.4799  11.00000  0.05    0.52
Q3    1  -0.0025  0.3964  0.3826  11.00000  0.05    0.50
Q4    1   0.0430  0.3912  0.4106  11.00000  0.05    0.50
Q5    1   0.2274  0.3871 -0.6836  11.00000  0.05    0.48

  REM The information below was added by Olex2.
  REM
  REM R1 = 0.0936 for 1413 Fo > 4sig(Fo) and 0.1280 for all 7198 data
  REM n/a parameters refined using n/a restraints
  REM Highest difference peak 0.55, deepest hole -0.92
  REM Mean Shift 0, Max Shift 0.000.

  REM +++ Tabular Listing of Refinement Information +++
  REM R1_all = 0.1280
  REM R1_gt = 0.0936
  REM wR_ref = 0.3100
  REM GOOF = 1.153
  REM Shift_max = 0.000
  REM Shift_mean = 0
  REM Reflections_all = 7198
  REM Reflections_gt = 1413
  REM Parameters = n/a
  REM Hole = -0.92
  REM Peak = 0.55
  REM Flack = n/a

  
;
_cod_data_source_file            c8sc04376k2.cif
_cod_data_source_block           pos-1273k
_cod_depositor_comments
;

2022-09-15
Z value and formula fixed to values more according to usual
chemical conventions.                 miguel
;
_cod_original_formula_sum            'C164 H160 N32 O48 S16'
_cod_original_formula_weight         3860.19
_cod_original_formula_moiety         '4(C25 H16 O12 S4), 8(C8 H12 N4)'
_cod_original_formula_units_Z            1
_cod_database_code               1550097
_shelx_shelxl_version_number     2016/6
_shelx_space_group_comment
;
The symmetry employed for this shelxl refinement is uniquely defined
by the following loop, which should always be used as a source of
symmetry information in preference to the above space-group names.
They are only intended as comments.
;
_shelx_estimated_absorpt_t_max   0.994
_shelx_estimated_absorpt_t_min   0.831
_olex2_refinement_description
;
1. Fixed Uiso
 At 1.2 times of:
  All C(H) groups, All N(H,H) groups
2. Restrained distances
 C3-H3
 1.08 with sigma of 0.01
 C4-H4
 1.08 with sigma of 0.01
 C6-H6
 1.08 with sigma of 0.01
 C7-H7
 1.08 with sigma of 0.01
 C8-H8
 1.08 with sigma of 0.01
 C10-H10
 1.08 with sigma of 0.01
3.a Aromatic/amide H refined with riding coordinates:
 C3(H3), C8(H8), C10(H10)
3.b X=CH2 refined with riding coordinates:
 N1(H1a,H1b), N2(H2a,H2b)
;
_shelx_fab_file
;
0 0 4 9.5661 -0.0009
0 0 8 -0.6324 -0.0334
0 1 3 -6.5114 -0.0111
0 1 5 1.3519 0.0002
0 1 7 -0.4523 -0.0004
0 1 9 -0.3154 -0.0072
0 2 2 6.6066 -0.0344
0 2 4 6.6672 -0.0094
0 2 6 0.9544 0.0016
0 2 8 -1.4837 -0.0161
0 3 1 22.2216 0.0306
0 3 3 -12.6953 0.0070
0 3 5 1.9442 -0.0072
0 3 7 -1.0516 -0.0016
0 3 9 -0.6605 -0.0210
0 4 0 54.3052 0.3003
0 4 2 16.8374 -0.0053
0 4 4 0.5178 -0.0029
0 4 6 2.8815 0.0073
0 4 8 -2.8233 0.0118
0 5 1 9.6022 0.0764
0 5 3 -6.9069 0.0008
0 5 5 -0.7421 -0.0059
0 5 7 -1.2513 -0.0012
0 6 0 10.7607 0.0369
0 6 2 14.8963 0.0218
0 6 4 -3.4809 0.0125
0 6 6 3.7386 0.0004
0 6 8 -2.9451 0.0140
0 7 1 -14.3287 0.0185
0 7 3 2.4274 -0.0127
0 7 5 -3.5306 0.0032
0 7 7 -1.4746 -0.0063
0 8 0 -9.9508 -0.1884
0 8 2 -0.2322 -0.0023
0 8 4 -2.3853 0.0155
0 8 6 2.3847 -0.0126
0 8 8 -2.0584 -0.0002
0 9 1 -26.8803 -0.0367
0 9 3 5.7681 0.0065
0 9 5 -3.8037 0.0075
0 9 7 -1.6110 -0.0134
0 10 0 -10.9350 -0.0975
0 10 2 -14.1145 -0.0143
0 10 4 1.0376 0.0022
0 10 6 -0.0028 -0.0088
0 10 8 -1.3021 -0.0010
0 11 1 -19.1835 -0.0278
0 11 3 2.9771 0.0211
0 11 5 -2.3352 0.0023
0 11 7 -1.1914 -0.0061
0 12 2 -15.5704 0.0107
0 12 4 1.8099 -0.0086
0 12 6 -1.3032 0.0090
0 12 8 -0.7715 0.0063
0 13 1 -3.2488 0.0018
0 13 3 -0.1985 -0.0037
0 13 5 -0.9618 -0.0016
0 13 7 -0.7828 0.0126
0 14 0 -3.9630 0.0801
0 14 2 -8.1035 0.0138
0 14 4 -1.0472 -0.0035
0 14 6 -1.0757 0.0146
0 14 8 -0.0131 0.0003
0 15 1 5.2000 0.0125
0 15 3 -0.3509 -0.0201
0 15 5 -0.1781 0.0034
0 15 7 -1.5897 0.0169
0 16 0 -4.6024 -0.0783
0 16 2 -1.5135 -0.0077
0 16 4 -4.0947 0.0079
0 16 6 -0.5647 0.0027
0 17 1 3.8513 0.0024
0 17 3 1.6875 -0.0027
0 17 5 0.4569 0.0081
0 17 7 -3.1669 0.0001
0 18 0 -2.6633 -0.0579
0 18 2 0.3036 -0.0057
0 18 4 -4.5097 0.0078
0 18 6 -0.3787 -0.0077
0 19 1 0.6535 -0.0187
0 19 3 3.8232 0.0011
0 19 5 1.1434 0.0015
0 19 7 -3.4674 -0.0122
0 20 0 1.8353 0.0786
0 20 2 -0.3167 0.0032
0 20 4 -2.6894 -0.0046
0 20 6 0.1058 -0.0095
0 21 1 0.5729 -0.0207
0 21 3 4.7503 -0.0159
0 21 5 1.4663 -0.0136
0 22 0 3.9663 0.0714
0 22 2 -0.9244 -0.0125
0 22 4 -0.3441 -0.0143
0 22 6 1.0216 -0.0139
0 23 1 1.6961 0.0121
0 23 3 3.9704 -0.0066
0 23 5 0.8735 -0.0294
0 24 0 2.4424 -0.0408
0 24 2 -0.9591 -0.0168
0 24 4 1.2578 -0.0130
0 25 1 1.1801 0.0311
0 25 3 1.7337 0.0197
0 25 5 -0.3300 -0.0400
0 26 0 1.1864 -0.0618
0 26 2 -0.5055 0.0074
0 26 4 1.4063 -0.0097
0 27 1 -0.5701 -0.0016
0 27 3 -0.5777 0.0158
0 28 0 1.9498 -0.0097
0 28 2 0.0250 0.0124
0 29 1 -1.5436 -0.0342
1 1 2 -0.0759 -0.0281
1 1 4 -27.7233 -0.0079
1 1 6 0.4524 0.0026
1 1 8 2.4902 -0.0068
1 2 3 1.4239 0.0011
1 2 5 -8.5271 -0.0025
1 2 7 2.2652 -0.0111
1 2 9 -1.7306 -0.0229
1 3 2 -5.2788 -0.0131
1 3 4 -15.4533 -0.0171
1 3 6 0.2388 0.0003
1 3 8 2.2216 0.0022
1 4 1 -54.8602 0.0229
1 4 3 2.1446 -0.0203
1 4 5 -9.9819 -0.0024
1 4 7 2.2915 -0.0114
1 4 9 -2.2044 -0.0223
1 5 2 -4.6673 0.0257
1 5 4 -0.7303 -0.0024
1 5 6 -0.6171 -0.0052
1 5 8 1.9505 0.0112
1 6 1 -37.7842 0.0568
1 6 3 -6.4074 -0.0080
1 6 5 -5.0576 -0.0015
1 6 7 0.1079 0.0073
1 7 2 4.1202 0.0129
1 7 4 5.8709 0.0070
1 7 6 -0.9453 -0.0014
1 7 8 1.7679 0.0073
1 8 1 -13.8204 0.0002
1 8 3 -15.4530 0.0134
1 8 5 1.1165 -0.0020
1 8 7 -1.5106 0.0110
1 9 2 11.9826 -0.0220
1 9 4 3.7433 0.0025
1 9 6 0.0295 0.0028
1 9 8 1.7415 -0.0105
1 10 1 -0.7548 -0.0773
1 10 3 -15.1507 0.0100
1 10 5 3.7786 -0.0037
1 10 7 -1.5445 -0.0089
1 11 2 11.8106 -0.0051
1 11 4 0.1397 -0.0012
1 11 6 1.8499 -0.0049
1 11 8 1.9252 -0.0293
1 12 1 0.8300 -0.0291
1 12 3 -5.9158 -0.0021
1 12 5 2.7103 -0.0020
1 12 7 -0.7357 -0.0209
1 13 2 6.1654 0.0249
1 13 4 -0.0232 -0.0050
1 13 6 3.3262 -0.0114
1 13 8 2.0336 -0.0358
1 14 1 0.2429 0.0739
1 14 3 3.0001 -0.0014
1 14 5 0.8047 0.0051
1 14 7 0.6331 -0.0093
1 15 2 1.2897 0.0053
1 15 4 1.5162 -0.0106
1 15 6 3.4017 -0.0003
1 16 1 2.1157 0.0473
1 16 3 5.2829 0.0017
1 16 5 0.0859 0.0105
1 16 7 2.3518 0.0089
1 17 2 -0.1456 -0.0202
1 17 4 1.1318 -0.0048
1 17 6 1.6908 0.0163
1 18 1 4.7825 -0.0524
1 18 3 3.2724 -0.0014
1 18 5 0.0317 0.0089
1 18 7 3.1662 0.0207
1 19 2 0.5203 -0.0062
1 19 4 -1.4646 0.0080
1 19 6 -0.8165 0.0200
1 20 1 6.2946 -0.0416
1 20 3 1.7977 -0.0036
1 20 5 -0.5382 0.0066
1 21 2 1.0808 0.0044
1 21 4 -3.6527 0.0079
1 21 6 -2.0942 0.0166
1 22 1 5.5479 0.0372
1 22 3 1.7612 -0.0053
1 22 5 -1.3591 0.0112
1 23 2 0.8854 -0.0075
1 23 4 -3.5414 0.0017
1 24 1 1.9315 0.0294
1 24 3 1.7724 -0.0077
1 24 5 -1.4485 0.0174
1 25 2 0.7049 0.0019
1 25 4 -1.8505 0.0050
1 26 1 -2.2244 -0.0307
1 26 3 1.6562 -0.0011
1 27 2 0.7319 0.0285
1 28 1 -3.1115 -0.0298
1 28 3 1.6565 0.0109
1 29 2 0.2428 0.0265
2 1 3 11.2247 0.0115
2 1 5 4.8420 -0.0021
2 1 7 2.7003 -0.0082
2 1 9 2.3846 0.0282
2 2 0 -82.2138 -0.2685
2 2 2 20.4651 0.0195
2 2 4 -4.7181 0.0086
2 2 6 0.3285 0.0079
2 2 8 2.0707 0.0056
2 3 1 -8.2645 -0.0604
2 3 3 14.1997 -0.0085
2 3 5 1.4112 0.0033
2 3 7 2.2075 -0.0012
2 3 9 2.0652 0.0188
2 4 2 17.0331 0.0029
2 4 4 1.0935 0.0026
2 4 6 -1.4443 -0.0031
2 4 8 3.7561 -0.0159
2 5 1 -22.9541 -0.0858
2 5 3 6.0929 -0.0072
2 5 5 0.8857 0.0025
2 5 7 1.0576 0.0048
2 6 2 10.1914 -0.0259
2 6 4 6.2516 -0.0109
2 6 6 -2.7275 -0.0101
2 6 8 4.4910 -0.0145
2 7 1 -9.5612 -0.0044
2 7 3 -5.5339 0.0110
2 7 5 1.4519 -0.0073
2 7 7 0.0769 0.0098
2 8 2 11.0750 -0.0033
2 8 4 6.4193 -0.0144
2 8 6 -2.2675 -0.0037
2 8 8 3.4270 0.0085
2 9 1 9.9078 0.0569
2 9 3 -11.7968 -0.0005
2 9 5 0.6454 -0.0108
2 9 7 -0.5935 0.0123
2 10 0 28.7238 0.0917
2 10 2 15.7227 0.0237
2 10 4 2.8368 -0.0043
2 10 6 -0.4627 0.0001
2 10 8 1.7620 0.0168
2 11 1 12.6817 0.0328
2 11 3 -10.7049 -0.0204
2 11 5 -0.9970 0.0006
2 11 7 -1.2459 0.0023
2 12 0 7.2407 -0.1000
2 12 2 14.9714 0.0047
2 12 4 0.3199 0.0045
2 12 6 0.8158 -0.0053
2 12 8 0.5504 0.0020
2 13 1 0.9166 -0.0097
2 13 3 -5.9669 -0.0039
2 13 5 -1.8696 0.0130
2 13 7 -1.4242 -0.0168
2 14 0 -1.5974 -0.0919
2 14 2 7.9609 -0.0139
2 14 4 0.7793 0.0051
2 14 6 0.4825 -0.0030
2 14 8 -0.2595 -0.0100
2 15 1 -8.4522 -0.0179
2 15 3 -2.2831 0.0169
2 15 5 -2.0213 0.0113
2 15 7 -0.3672 -0.0196
2 16 0 1.6290 0.0636
2 16 2 0.7560 -0.0010
2 16 4 2.0457 0.0053
2 16 6 -0.4945 0.0124
2 17 1 -8.0253 -0.0077
2 17 3 -1.7286 0.0045
2 17 5 -2.2414 0.0016
2 17 7 1.2606 0.0041
2 18 0 3.1389 0.0746
2 18 2 -2.5811 0.0036
2 18 4 2.1392 0.0090
2 18 6 -0.9070 0.0229
2 19 1 -4.0209 0.0028
2 19 3 -2.7644 -0.0068
2 19 5 -2.4328 -0.0027
2 19 7 1.6240 0.0274
2 20 0 -1.6253 -0.0495
2 20 2 -2.3732 -0.0064
2 20 4 1.1643 0.0094
2 20 6 -1.0186 0.0217
2 21 1 -2.7582 0.0043
2 21 3 -2.7905 0.0040
2 21 5 -2.0383 -0.0007
2 22 0 -4.7061 -0.0641
2 22 2 -0.4933 0.0008
2 22 4 -0.3397 0.0026
2 22 6 -1.4007 0.0223
2 23 1 -3.4036 -0.0119
2 23 3 -1.1889 -0.0002
2 23 5 -0.9578 0.0033
2 24 0 -2.1281 0.0305
2 24 2 1.0562 0.0093
2 24 4 -1.8585 -0.0061
2 25 1 -2.8532 -0.0198
2 25 3 0.8745 -0.0229
2 26 0 0.3377 0.0417
2 26 2 1.0116 -0.0049
2 26 4 -2.3070 -0.0099
2 27 1 -0.9979 0.0088
2 27 3 2.1000 -0.0239
2 28 0 -0.9062 -0.0319
2 28 2 0.0704 -0.0111
2 29 1 0.2058 0.0369
3 1 2 -7.0492 0.0325
3 1 4 16.9352 0.0071
3 1 6 -2.0239 -0.0044
3 1 8 -2.0977 0.0023
3 2 1 31.4844 0.0099
3 2 3 3.0952 0.0059
3 2 5 8.3821 0.0036
3 2 7 -1.5195 0.0069
3 2 9 0.6441 -0.0005
3 3 2 -4.6822 -0.0026
3 3 4 8.5887 0.0139
3 3 6 -2.7750 -0.0044
3 3 8 -1.4313 -0.0004
3 4 1 25.6158 -0.0095
3 4 3 -5.2718 0.0132
3 4 5 11.1383 0.0054
3 4 7 -2.2545 0.0137
3 5 2 -7.7629 -0.0493
3 5 4 -3.7589 -0.0024
3 5 6 -2.0762 0.0052
3 5 8 -0.7599 -0.0091
3 6 1 7.2709 -0.0224
3 6 3 -5.4122 -0.0028
3 6 5 7.3246 0.0031
3 6 7 -0.6375 -0.0009
3 7 2 -14.9564 -0.0304
3 7 4 -9.7521 -0.0151
3 7 6 -1.1824 0.0085
3 7 8 -0.1100 -0.0085
3 8 1 -9.5029 -0.0022
3 8 3 -0.0534 -0.0195
3 8 5 0.2360 -0.0020
3 8 7 0.7727 -0.0139
3 9 2 -17.1299 0.0242
3 9 4 -6.6431 -0.0087
3 9 6 -1.3528 0.0018
3 9 8 0.3916 0.0087
3 10 1 -14.4591 0.0398
3 10 3 2.4116 -0.0069
3 10 5 -4.5330 -0.0048
3 10 7 0.6392 -0.0072
3 11 2 -11.8216 0.0210
3 11 4 -0.8791 0.0031
3 11 6 -2.4645 -0.0019
3 11 8 0.3474 0.0308
3 12 1 -10.6059 0.0158
3 12 3 -1.1524 0.0129
3 12 5 -4.3962 -0.0050
3 12 7 -0.0018 -0.0012
3 13 2 -4.6108 -0.0181
3 13 4 1.5818 0.0116
3 13 6 -3.1624 -0.0007
3 13 8 -0.0563 0.0388
3 14 1 -6.0149 -0.0527
3 14 3 -5.7199 0.0089
3 14 5 -1.6052 -0.0043
3 14 7 -0.4776 -0.0133
3 15 2 0.1023 -0.0108
3 15 4 1.1000 0.0156
3 15 6 -2.3096 -0.0038
3 16 1 -3.3101 -0.0363
3 16 3 -6.2663 -0.0020
3 16 5 0.0815 0.0022
3 16 7 -1.1283 -0.0298
3 17 2 2.0990 0.0202
3 17 4 0.6125 0.0095
3 17 6 0.0674 -0.0065
3 18 1 -1.8164 0.0418
3 18 3 -3.8238 0.0052
3 18 5 -0.1541 0.0150
3 18 7 -1.5606 -0.0371
3 19 2 2.2174 0.0118
3 19 4 1.0392 0.0014
3 19 6 2.7131 0.0021
3 20 1 -2.1687 0.0352
3 20 3 -1.7900 0.0182
3 20 5 -0.3717 0.0206
3 21 2 1.3419 -0.0116
3 21 4 1.4616 0.0082
3 21 6 3.8099 0.0129
3 22 1 -3.3101 -0.0380
3 22 3 -0.8637 0.0179
3 22 5 0.4124 0.0114
3 23 2 0.5133 -0.0112
3 23 4 1.0869 0.0206
3 24 1 -1.9265 -0.0397
3 24 3 -0.2025 0.0069
3 24 5 1.1373 0.0014
3 25 2 -0.0317 -0.0140
3 25 4 0.1543 0.0191
3 26 1 1.3690 0.0166
3 26 3 -0.0327 -0.0076
3 27 2 -0.4282 -0.0334
3 28 1 2.1220 0.0208
3 28 3 -0.5136 -0.0209
3 29 2 -0.2846 -0.0373
4 1 1 -41.5925 -0.0091
4 1 3 -4.7819 -0.0071
4 1 5 -4.6108 0.0076
4 1 7 -2.1425 -0.0005
4 1 9 -2.7856 -0.0168
4 2 2 -39.1476 -0.0006
4 2 4 2.1698 -0.0015
4 2 6 -2.4745 -0.0098
4 2 8 -1.9137 0.0030
4 3 1 1.3325 0.0505
4 3 3 -5.1223 0.0092
4 3 5 1.4521 0.0055
4 3 7 -0.9452 -0.0023
4 4 0 3.5054 0.1032
4 4 2 -36.7141 -0.0055
4 4 4 0.3211 -0.0005
4 4 6 -0.6803 0.0011
4 4 8 -2.3906 0.0035
4 5 1 31.5879 0.0501
4 5 3 0.6545 0.0112
4 5 5 4.3060 -0.0016
4 5 7 0.9417 0.0002
4 6 0 -42.1373 -0.0411
4 6 2 -20.2417 0.0165
4 6 4 -3.6146 0.0024
4 6 6 1.2871 0.0135
4 6 8 -2.7876 0.0015
4 7 1 25.4233 -0.0208
4 7 3 8.4800 -0.0075
4 7 5 3.9488 0.0004
4 7 7 2.2918 0.0047
4 8 0 -54.7080 -0.1252
4 8 2 -7.8390 0.0045
4 8 4 -4.9117 0.0012
4 8 6 1.9991 0.0099
4 8 8 -1.8215 -0.0075
4 9 1 1.4991 -0.0548
4 9 3 13.1472 -0.0068
4 9 5 2.8350 0.0041
4 9 7 2.8442 0.0054
4 10 0 -31.1784 -0.0516
4 10 2 -4.8891 -0.0240
4 10 4 -2.4494 -0.0041
4 10 6 0.9156 -0.0017
4 10 8 -0.4987 -0.0035
4 11 1 -9.1771 -0.0111
4 11 3 12.3341 0.0102
4 11 5 2.0522 -0.0035
4 11 7 3.1529 0.0037
4 12 2 -4.6832 -0.0129
4 12 4 0.3719 -0.0043
4 12 6 -0.5421 -0.0066
4 12 8 -0.0505 0.0183
4 13 1 -1.3600 0.0305
4 13 3 6.8450 0.0056
4 13 5 1.4651 -0.0146
4 13 7 3.1270 0.0005
4 14 2 -1.8440 0.0133
4 14 4 1.2097 -0.0004
4 14 6 -0.5633 -0.0100
4 15 1 7.9192 0.0227
4 15 3 0.8962 -0.0062
4 15 5 1.5413 -0.0131
4 15 7 2.1990 -0.0134
4 16 0 -1.9597 -0.0510
4 16 2 2.4202 0.0103
4 16 4 0.8705 -0.0025
4 16 6 0.5393 -0.0160
4 17 1 7.9092 0.0035
4 17 3 -1.0260 0.0054
4 17 5 2.4976 -0.0003
4 17 7 0.7821 -0.0402
4 18 0 -9.4943 -0.0765
4 18 2 4.9712 0.0008
4 18 4 0.2977 -0.0068
4 18 6 1.1246 -0.0113
4 19 1 3.5923 -0.0014
4 19 3 0.6225 0.0153
4 19 5 3.2275 0.0118
4 20 0 -5.0530 0.0258
4 20 2 4.4519 0.0069
4 20 4 -0.4783 -0.0007
4 20 6 0.8624 0.0068
4 21 1 2.1142 -0.0025
4 21 3 1.6540 0.0009
4 21 5 2.7219 0.0194
4 22 0 0.5184 0.0593
4 22 2 1.6349 0.0068
4 22 4 -0.7952 0.0117
4 22 6 0.6282 0.0178
4 23 1 3.1656 0.0003
4 23 3 0.2349 -0.0072
4 23 5 1.3186 0.0233
4 24 0 -1.1077 -0.0074
4 24 2 -0.9408 -0.0013
4 24 4 0.0042 0.0162
4 25 1 3.2714 0.0034
4 25 3 -1.8326 0.0042
4 26 0 -4.1063 -0.0199
4 26 2 -1.1638 0.0026
4 26 4 0.9489 0.0127
4 27 1 1.8644 -0.0099
4 27 3 -2.6143 0.0053
4 28 0 -2.6811 0.0407
4 28 2 0.0839 0.0048
4 29 1 0.7743 -0.0251
5 1 2 11.2994 -0.0112
5 1 4 -5.5694 -0.0045
5 1 6 3.2387 -0.0016
5 1 8 1.6338 -0.0017
5 2 1 5.3626 0.0122
5 2 3 1.5534 -0.0051
5 2 5 -4.2458 0.0005
5 2 7 0.6851 0.0011
5 3 2 13.1347 0.0209
5 3 4 -4.0575 -0.0064
5 3 6 4.0365 0.0027
5 3 8 0.3326 -0.0106
5 4 1 18.4736 -0.0012
5 4 3 13.3416 -0.0011
5 4 5 -8.3741 0.0043
5 4 7 2.0498 -0.0067
5 5 2 15.8433 0.0447
5 5 4 3.3975 0.0063
5 5 6 2.9053 -0.0008
5 5 8 -0.8791 -0.0046
5 6 1 26.1046 -0.0122
5 6 3 18.3433 0.0089
5 6 5 -7.1043 0.0064
5 6 7 1.6256 -0.0015
5 7 2 16.8040 0.0165
5 7 4 8.7117 0.0150
5 7 6 1.0747 -0.0050
5 7 8 -1.7931 0.0050
5 8 1 25.0478 0.0013
5 8 3 13.7021 0.0134
5 8 5 -1.1298 0.0069
5 8 7 1.2115 0.0126
5 9 2 10.9734 -0.0319
5 9 4 6.8312 0.0066
5 9 6 -0.0253 0.0004
5 9 8 -2.3789 0.0067
5 10 1 16.5548 0.0023
5 10 3 6.3370 -0.0030
5 10 5 4.5069 0.0030
5 10 7 1.8061 0.0162
5 11 2 2.3039 -0.0241
5 11 4 1.3495 -0.0060
5 11 6 -0.0414 0.0073
5 11 8 -2.1782 0.0036
5 12 1 7.4953 0.0063
5 12 3 3.2459 -0.0201
5 12 5 5.3052 -0.0025
5 12 7 1.9881 0.0121
5 13 2 -1.9730 0.0187
5 13 4 -2.1497 -0.0097
5 13 6 0.1241 0.0052
5 13 8 -1.3388 0.0067
5 14 1 2.8423 0.0278
5 14 3 3.9785 -0.0102
5 14 5 2.0300 -0.0031
5 14 7 0.9984 0.0113
5 15 2 -2.1651 0.0161
5 15 4 -2.5583 -0.0037
5 15 6 -0.4726 -0.0027
5 16 1 0.7743 0.0130
5 16 3 4.4305 0.0091
5 16 5 -0.6265 -0.0047
5 16 7 0.0723 0.0075
5 17 2 -2.6126 -0.0173
5 17 4 -1.4831 0.0071
5 17 6 -1.8610 -0.0120
5 18 1 -0.9474 -0.0342
5 18 3 3.2695 0.0069
5 18 5 -0.2233 -0.0133
5 18 7 -0.0465 -0.0038
5 19 2 -3.4958 -0.0135
5 19 4 0.0229 0.0103
5 19 6 -3.2491 -0.0229
5 20 1 -0.4872 -0.0263
5 20 3 1.6215 -0.0051
5 20 5 1.1700 -0.0168
5 21 2 -2.6755 0.0146
5 21 4 1.3788 -0.0032
5 21 6 -3.5308 -0.0292
5 22 1 2.0801 0.0309
5 22 3 -0.0277 0.0004
5 22 5 1.1539 -0.0057
5 23 2 -0.5580 0.0191
5 23 4 2.0699 -0.0168
5 24 1 2.5069 0.0382
5 24 3 -1.5001 0.0188
5 24 5 0.1590 0.0040
5 25 2 1.1438 0.0139
5 25 4 2.0211 -0.0112
5 26 1 0.0282 -0.0028
5 26 3 -1.8107 0.0311
5 27 2 1.8284 0.0246
5 28 1 -0.9411 -0.0069
6 1 1 33.6358 0.0026
6 1 3 -9.8756 0.0034
6 1 5 -0.2461 -0.0126
6 1 7 0.2808 0.0091
6 2 0 -21.5059 -0.0678
6 2 2 33.9193 -0.0044
6 2 4 -2.0662 -0.0074
6 2 6 3.2452 -0.0015
6 2 8 0.4542 0.0007
6 3 1 -2.6650 -0.0091
6 3 3 -8.1498 -0.0002
6 3 5 -6.2453 -0.0118
6 3 7 -0.3980 0.0002
6 4 0 1.8518 -0.0024
6 4 2 30.8755 0.0196
6 4 4 -3.9509 0.0001
6 4 6 1.4101 0.0010
6 4 8 -0.5685 0.0104
6 5 1 -33.0483 -0.0008
6 5 3 -6.0696 -0.0056
6 5 5 -8.9165 0.0049
6 5 7 -2.0395 -0.0094
6 6 0 34.4205 0.0479
6 6 2 11.6906 0.0020
6 6 4 -0.9466 0.0075
6 6 6 -0.9531 -0.0007
6 6 8 -0.6603 0.0053
6 7 1 -29.1823 0.0298
6 7 3 -5.4265 0.0022
6 7 5 -7.0232 0.0113
6 7 7 -3.1679 -0.0144
6 8 0 42.7548 0.0504
6 8 2 -5.0691 -0.0082
6 8 4 1.7196 0.0110
6 8 6 -2.3275 0.0029
6 8 8 -1.0668 -0.0070
6 9 1 -4.4803 0.0255
6 9 3 -6.3409 0.0056
6 9 5 -3.0165 0.0026
6 9 7 -3.2706 -0.0102
6 10 0 20.9798 0.0067
6 10 2 -9.4111 0.0067
6 10 4 0.6625 0.0104
6 10 6 -1.4359 0.0093
6 10 8 -1.1589 -0.0224
6 11 1 9.8177 -0.0206
6 11 3 -6.6460 -0.0014
6 11 5 0.3084 -0.0038
6 11 7 -3.1241 0.0019
6 12 0 -5.1817 -0.0525
6 12 2 -6.0272 0.0059
6 12 4 -1.8869 0.0020
6 12 6 0.6760 0.0059
6 12 8 -0.1330 -0.0359
6 13 1 5.2726 -0.0394
6 13 3 -3.3082 -0.0007
6 13 5 1.6184 -0.0017
6 13 7 -3.0043 0.0156
6 14 0 -9.4816 -0.0429
6 14 2 -3.2538 -0.0112
6 14 4 -3.0820 -0.0087
6 14 6 1.4698 -0.0038
6 15 1 -2.6096 -0.0090
6 15 3 1.9192 0.0021
6 15 5 0.5759 -0.0022
6 15 7 -2.4021 0.0282
6 16 0 5.0333 0.0349
6 16 2 -3.6532 -0.0087
6 16 4 -2.8054 -0.0078
6 16 6 0.4160 -0.0104
6 17 1 -2.5765 0.0163
6 17 3 3.4496 -0.0068
6 17 5 -1.8288 -0.0085
6 17 7 -1.3343 0.0380
6 18 0 14.6673 0.0539
6 18 2 -4.8551 0.0059
6 18 4 -1.5442 0.0006
6 18 6 -0.5933 -0.0222
6 19 1 1.0128 0.0121
6 19 3 0.3068 -0.0077
6 19 5 -3.4056 -0.0130
6 20 0 9.0486 -0.0154
6 20 2 -4.1015 0.0063
6 20 4 0.5590 0.0001
6 20 6 -0.4343 -0.0437
6 21 1 1.2948 0.0067
6 21 3 -2.4655 0.0117
6 21 5 -2.9486 -0.0125
6 22 0 0.8599 -0.0457
6 22 2 -1.1408 0.0018
6 22 4 2.2635 -0.0054
6 23 1 -0.9815 0.0095
6 23 3 -1.6207 0.0233
6 23 5 -1.3386 -0.0097
6 24 0 1.3911 0.0038
6 24 2 1.4685 0.0040
6 24 4 2.1575 0.0000
6 25 1 -1.9002 0.0084
6 25 3 0.8687 0.0160
6 26 0 5.2815 0.0300
6 26 2 1.4105 0.0040
6 26 4 0.8517 0.0112
6 27 1 -0.8604 0.0091
6 27 3 2.1763 0.0149
6 28 0 4.7590 0.0027
6 28 2 -0.2271 0.0047
6 29 1 0.0510 0.0137
7 1 2 -6.0675 -0.0138
7 1 4 1.1764 0.0011
7 1 6 -3.2974 0.0096
7 1 8 -1.4915 0.0053
7 2 1 -35.0379 -0.0301
7 2 3 -6.5027 -0.0019
7 2 5 -0.5464 -0.0066
7 2 7 0.6688 -0.0060
7 3 2 -11.5168 -0.0256
7 3 4 4.4534 0.0024
7 3 6 -3.7960 -0.0002
7 3 8 0.2880 0.0153
7 4 1 -42.3361 0.0007
7 4 3 -15.8401 -0.0062
7 4 5 4.0781 -0.0126
7 4 7 -0.5879 -0.0054
7 5 2 -13.1029 -0.0149
7 5 4 0.5040 -0.0017
7 5 6 -2.1549 -0.0070
7 5 8 1.8725 0.0090
7 6 1 -35.1122 0.0270
7 6 3 -20.0597 -0.0029
7 6 5 5.5081 -0.0086
7 6 7 -0.9461 -0.0004
7 7 2 -8.7822 0.0137
7 7 4 -5.3299 -0.0036
7 7 6 0.4917 -0.0035
7 7 8 2.6578 -0.0062
7 8 1 -19.8247 -0.0025
7 8 3 -13.6777 0.0020
7 8 5 1.8599 -0.0007
7 8 7 -1.4469 -0.0025
7 9 2 1.2487 0.0320
7 9 4 -6.4342 0.0011
7 9 6 2.6085 -0.0003
7 9 8 2.8471 -0.0177
7 10 1 -5.0742 -0.0297
7 10 3 -3.0551 0.0098
7 10 5 -3.5897 0.0084
7 10 7 -2.5395 -0.0022
7 11 2 8.5055 0.0080
7 11 4 -3.0666 0.0041
7 11 6 3.3255 -0.0011
7 11 8 2.2832 -0.0236
7 12 1 2.4487 -0.0175
7 12 3 2.5233 0.0138
7 12 5 -5.3247 0.0122
7 12 7 -2.5345 0.0068
7 13 2 6.6872 -0.0267
7 13 4 0.4224 -0.0016
7 13 6 2.9798 0.0001
7 14 1 2.3688 -0.0002
7 14 3 1.4666 0.0012
7 14 5 -2.1309 0.0016
7 14 7 -0.7408 0.0200
7 15 2 1.4322 -0.0155
7 15 4 1.6682 -0.0138
7 15 6 2.4272 0.0035
7 16 1 0.5107 0.0111
7 16 3 -1.4847 -0.0163
7 16 5 1.4104 -0.0135
7 16 7 0.9544 0.0359
7 17 2 0.7994 0.0200
7 17 4 0.7456 -0.0245
7 17 6 2.1192 0.0032
7 18 1 0.7523 0.0228
7 18 3 -2.6287 -0.0157
7 18 5 1.3413 -0.0142
7 19 2 3.4672 0.0199
7 19 4 -1.4868 -0.0214
7 19 6 1.9857 -0.0021
7 20 1 0.8435 0.0107
7 20 3 -1.6058 -0.0063
7 20 5 -0.9511 -0.0068
7 21 2 3.6308 -0.0047
7 21 4 -3.5101 -0.0032
7 21 6 1.6258 -0.0086
7 22 1 -0.7874 -0.0193
7 22 3 0.6093 -0.0122
7 22 5 -2.0920 -0.0100
7 23 2 0.6041 -0.0083
7 23 4 -3.9943 0.0075
7 24 1 -1.1708 -0.0169
7 24 3 2.5913 -0.0280
7 24 5 -1.4147 -0.0164
7 25 2 -2.3053 0.0005
7 25 4 -3.0186 -0.0047
7 26 1 0.7100 0.0131
7 26 3 2.8037 -0.0318
7 27 2 -3.2622 -0.0051
7 28 1 1.3610 0.0169
8 1 1 -18.2759 -0.0053
8 1 3 21.1035 -0.0060
8 1 5 3.7696 0.0115
8 1 7 0.5596 -0.0011
8 2 2 -12.5510 -0.0019
8 2 4 4.6430 0.0075
8 2 6 -1.7604 0.0116
8 2 8 0.5948 0.0007
8 3 1 3.0505 -0.0172
8 3 3 15.9431 -0.0153
8 3 5 6.9474 0.0101
8 3 7 0.2559 0.0054
8 4 0 5.5276 -0.0285
8 4 2 -12.6238 -0.0290
8 4 4 7.2952 -0.0049
8 4 6 -0.4136 -0.0069
8 4 8 2.1032 -0.0062
8 5 1 25.0848 -0.0192
8 5 3 5.9330 -0.0044
8 5 5 7.8209 -0.0090
8 5 7 1.4229 0.0065
8 6 0 -14.7164 -0.0246
8 6 2 0.1283 -0.0125
8 6 4 3.7179 -0.0105
8 6 6 1.4280 -0.0167
8 6 8 2.4204 -0.0034
8 7 1 22.5732 -0.0146
8 7 3 -1.9297 0.0060
8 7 5 4.9685 -0.0166
8 7 7 2.4495 0.0016
8 8 0 -24.0495 0.0069
8 8 2 12.5579 0.0153
8 8 4 -0.0578 -0.0070
8 8 6 2.6500 -0.0138
8 8 8 2.4711 0.0093
8 9 1 2.0924 0.0061
8 9 3 -3.2361 0.0048
8 9 5 0.3167 -0.0014
8 9 7 2.3823 -0.0043
8 10 0 -13.3166 0.0129
8 10 2 14.5765 0.0141
8 10 4 0.4513 -0.0029
8 10 6 1.7184 -0.0042
8 10 8 1.8039 0.0197
8 11 1 -11.4683 0.0306
8 11 3 -0.2895 -0.0029
8 11 5 -3.1958 0.0147
8 11 7 1.9713 -0.0050
8 12 0 2.5923 0.0105
8 12 2 8.5470 0.0026
8 12 4 2.9462 0.0029
8 12 6 -0.7582 0.0119
8 13 1 -9.3294 0.0215
8 13 3 0.2829 -0.0098
8 13 5 -3.9656 0.0152
8 13 7 1.7762 0.0013
8 14 0 4.7912 0.0074
8 14 2 2.8093 0.0018
8 14 4 3.8805 0.0108
8 14 6 -2.0527 0.0252
8 15 1 -3.1901 -0.0149
8 15 3 -2.8228 -0.0069
8 15 5 -1.9867 0.0078
8 15 7 1.4352 0.0106
8 16 0 -5.6759 -0.0128
8 16 2 1.5371 -0.0029
8 16 4 3.0582 0.0082
8 16 6 -1.0711 0.0229
8 17 1 -2.4360 -0.0281
8 17 3 -4.0238 0.0019
8 17 5 1.1314 0.0019
8 17 7 0.7656 0.0182
8 18 0 -11.4740 -0.0200
8 18 2 2.6352 -0.0145
8 18 4 1.3945 -0.0049
8 18 6 0.3265 0.0152
8 19 1 -3.8212 -0.0088
8 19 3 -0.7142 -0.0029
8 19 5 2.9577 -0.0062
8 20 0 -5.0773 0.0073
8 20 2 2.3306 -0.0161
8 20 4 -0.8933 -0.0104
8 20 6 0.4957 0.0193
8 21 1 -2.3324 0.0036
8 21 3 2.7028 -0.0190
8 21 5 2.5376 -0.0194
8 22 0 2.3096 0.0175
8 22 2 -0.1534 -0.0091
8 22 4 -2.8549 -0.0067
8 23 1 0.4791 -0.0036
8 23 3 2.4007 -0.0188
8 23 5 1.0824 -0.0308
8 24 0 0.8814 -0.0162
8 24 2 -2.1636 -0.0056
8 24 4 -3.0870 -0.0106
8 25 1 1.0316 -0.0091
8 25 3 -0.0341 -0.0034
8 26 0 -3.9984 -0.0426
8 26 2 -1.5118 -0.0051
8 27 1 -0.5408 -0.0079
8 27 3 -1.6089 -0.0027
8 28 0 -4.2741 -0.0371
8 28 2 0.4558 -0.0064
9 1 2 -2.3054 0.0242
9 1 4 -2.3231 0.0001
9 1 6 2.3360 -0.0084
9 1 8 1.6878 -0.0038
9 2 1 38.6352 0.0343
9 2 3 3.9986 0.0059
9 2 5 3.4455 0.0053
9 2 7 -2.1287 0.0082
9 3 2 4.8170 0.0181
9 3 4 -6.5685 -0.0014
9 3 6 3.2938 -0.0008
9 3 8 -0.4027 0.0023
9 4 1 36.0329 0.0057
9 4 3 8.1080 0.0047
9 4 5 -0.1538 0.0062
9 4 7 -1.7490 0.0155
9 5 2 6.7665 -0.0128
9 5 4 -4.3058 -0.0032
9 5 6 1.9242 0.0076
9 5 8 -2.2892 0.0098
9 6 1 21.1317 -0.0236
9 6 3 9.7122 -0.0074
9 6 5 -3.3850 -0.0026
9 6 7 -1.4880 0.0022
9 7 2 2.0908 -0.0305
9 7 4 1.8024 -0.0055
9 7 6 -0.9376 0.0041
9 7 8 -2.8595 0.0141
9 8 1 3.8779 0.0003
9 8 3 3.1658 -0.0119
9 8 5 -2.4233 -0.0092
9 8 7 -0.6704 -0.0113
9 9 2 -6.4005 -0.0171
9 9 4 5.4675 -0.0046
9 9 6 -3.4862 -0.0049
9 9 8 -2.5452 0.0093
9 10 1 -7.0440 0.0279
9 10 3 -5.9527 -0.0041
9 10 5 2.0493 -0.0118
9 10 7 0.8523 -0.0181
9 11 2 -9.8053 0.0146
9 11 4 4.6821 0.0010
9 11 6 -4.2666 -0.0079
9 11 8 -1.6493 -0.0002
9 12 1 -8.6175 0.0083
9 12 3 -9.0495 0.0035
9 12 5 4.7236 -0.0100
9 12 7 1.3430 -0.0242
9 13 2 -4.1451 0.0281
9 13 4 2.0165 0.0073
9 13 6 -3.3094 -0.0032
9 14 1 -3.9604 -0.0222
9 14 3 -5.3853 0.0078
9 14 5 2.4831 0.0045
9 14 7 0.0366 -0.0308
9 15 2 2.5383 0.0039
9 15 4 0.1935 0.0114
9 15 6 -1.7254 0.0057
9 16 1 0.2806 -0.0219
9 16 3 -0.5177 0.0094
9 16 5 -1.3033 0.0225
9 16 7 -1.2426 -0.0360
9 17 2 1.9338 -0.0240
9 17 4 0.3353 0.0124
9 17 6 -0.4439 0.0191
9 18 1 0.4606 -0.0044
9 18 3 1.5996 0.0030
9 18 5 -1.9516 0.0184
9 19 2 -2.8611 -0.0184
9 19 4 2.0469 0.0034
9 19 6 0.2337 0.0353
9 20 1 -1.1418 0.0081
9 20 3 0.9757 -0.0059
9 20 5 0.2714 -0.0043
9 21 2 -4.1852 0.0003
9 21 4 3.6000 -0.0147
9 22 1 -1.8082 0.0072
9 22 3 -0.8541 -0.0029
9 22 5 1.9502 -0.0142
9 23 2 -1.0932 -0.0011
9 23 4 3.5814 -0.0210
9 24 1 -2.3121 -0.0130
9 24 3 -2.2535 0.0075
9 25 2 2.1240 -0.0094
9 25 4 2.3026 -0.0046
9 26 1 -3.0818 -0.0357
9 26 3 -2.0206 0.0079
9 27 2 2.9815 -0.0053
9 28 1 -2.2837 -0.0344
10 1 1 11.3897 -0.0044
10 1 3 -20.0596 0.0096
10 1 5 -3.2410 -0.0028
10 1 7 -0.2943 -0.0123
10 2 2 -4.2540 0.0026
10 2 4 -6.8810 0.0031
10 2 6 -0.2936 -0.0082
10 2 8 -0.1403 -0.0144
10 3 1 4.5885 0.0101
10 3 3 -13.7193 0.0216
10 3 5 -3.3410 -0.0018
10 3 7 0.4748 -0.0028
10 4 0 -9.2117 0.0242
10 4 2 2.1469 0.0183
10 4 4 -8.2549 0.0110
10 4 6 -0.3813 0.0118
10 4 8 -1.0701 -0.0090
10 5 1 -8.9408 0.0100
10 5 3 -1.3904 0.0068
10 5 5 -2.9526 0.0089
10 5 7 -0.5038 0.0087
10 6 0 2.2848 0.0084
10 6 2 -0.4124 0.0081
10 6 4 -3.9745 0.0034
10 6 6 -0.9013 0.0188
10 6 8 -1.4731 0.0064
10 7 1 -10.0633 -0.0023
10 7 3 8.2480 -0.0131
10 7 5 -1.2073 0.0103
10 7 7 -1.6238 0.0159
10 8 0 13.6654 -0.0232
10 8 2 -6.3620 -0.0157
10 8 4 -0.2026 -0.0108
10 8 6 -1.7185 0.0051
10 8 8 -1.8769 0.0132
10 9 1 1.9394 -0.0139
10 9 3 9.1501 -0.0116
10 9 5 1.1657 -0.0048
10 9 7 -1.6266 0.0115
10 10 0 14.0623 -0.0099
10 10 2 -7.6844 -0.0168
10 10 4 -0.9598 -0.0113
10 10 6 -1.4072 -0.0122
10 10 8 -1.6172 0.0121
10 11 1 11.5525 -0.0132
10 11 3 3.6973 0.0080
10 11 5 2.9680 -0.0157
10 11 7 -1.1395 -0.0092
10 12 0 6.4113 0.0167
10 12 2 -3.5175 0.0009
10 12 4 -3.1658 -0.0032
10 12 6 0.2552 -0.0206
10 13 1 10.6808 0.0053
10 13 3 0.1158 0.0190
10 13 5 3.4251 -0.0079
10 13 7 -0.8663 -0.0376
10 14 0 1.5575 0.0100
10 14 2 0.6107 0.0106
10 14 4 -3.0913 -0.0025
10 14 6 1.2965 -0.0128
10 15 1 5.6358 0.0235
10 15 3 1.6122 0.0067
10 15 5 2.1385 0.0064
10 15 7 -0.6312 -0.0558
10 16 0 2.9671 -0.0059
10 16 2 0.6414 0.0095
10 16 4 -1.3683 -0.0016
10 16 6 0.5490 0.0161
10 17 1 3.0781 0.0146
10 17 3 3.2901 -0.0096
10 17 5 -0.2083 0.0130
10 18 2 -1.6348 0.0075
10 18 4 0.2442 0.0083
10 18 6 -0.6431 0.0485
10 19 1 1.9622 -0.0119
10 19 3 1.4237 -0.0052
10 19 5 -1.8369 0.0172
10 20 2 -2.0082 0.0041
10 20 4 1.7267 0.0113
10 20 6 -0.8708 0.0555
10 21 1 -0.0792 -0.0207
10 21 3 -1.2784 0.0049
10 21 5 -1.8494 0.0282
10 22 0 -3.3195 0.0037
10 22 2 0.3146 -0.0011
10 22 4 2.9989 -0.0013
10 23 1 -1.6278 -0.0071
10 23 3 -1.5504 -0.0100
10 24 0 -0.3413 0.0093
10 24 2 2.1621 -0.0034
10 24 4 3.1122 -0.0111
10 25 1 -0.7831 0.0048
10 25 3 -0.2194 -0.0353
10 26 0 3.5141 0.0135
10 26 2 1.3158 -0.0029
10 27 1 1.3669 0.0061
10 28 0 2.7767 0.0124
11 1 2 5.0360 -0.0190
11 1 4 2.9010 0.0015
11 1 6 -0.9352 -0.0015
11 1 8 -1.9991 -0.0076
11 2 1 -21.8268 -0.0220
11 2 3 2.5025 -0.0029
11 2 5 -4.2887 0.0028
11 2 7 2.4804 -0.0094
11 3 2 -2.0339 -0.0083
11 3 4 5.9957 -0.0013
11 3 6 -3.1103 0.0033
11 3 8 0.2338 -0.0357
11 4 1 -15.5164 -0.0058
11 4 3 1.8710 0.0002
11 4 5 -2.3787 0.0054
11 4 7 2.8837 -0.0143
11 5 2 -5.6166 0.0202
11 5 4 5.0517 -0.0017
11 5 6 -2.7573 0.0027
11 5 8 2.2628 -0.0395
11 6 1 -3.4420 0.0152
11 6 3 0.8141 0.0100
11 6 5 1.6508 0.0099
11 6 7 3.1042 0.0011
11 7 2 -3.9676 0.0250
11 7 4 0.3421 0.0022
11 7 6 -0.2213 0.0013
11 7 8 2.6393 -0.0220
11 8 1 6.7610 0.0065
11 8 3 4.4263 0.0077
11 8 5 2.9648 0.0056
11 8 7 2.4851 0.0166
11 9 2 0.8854 -0.0004
11 9 4 -3.9613 0.0022
11 9 6 2.2545 0.0030
11 9 8 1.9849 0.0078
11 10 3 9.0170 -0.0093
11 10 5 -0.2918 -0.0011
11 10 7 0.7504 0.0164
11 11 2 2.5673 -0.0230
11 11 4 -5.0864 -0.0020
11 11 6 2.6208 0.0041
11 12 1 7.8265 0.0070
11 12 3 8.7944 -0.0176
11 12 5 -3.9110 0.0004
11 12 7 -0.5562 0.0069
11 13 2 -1.4019 -0.0148
11 13 4 -3.4863 0.0001
11 13 6 1.0074 0.0007
11 14 1 2.5659 0.0263
11 14 3 4.6080 -0.0077
11 14 5 -3.4237 0.0004
11 14 7 -0.3763 -0.0018
11 15 2 -4.8694 0.0109
11 15 4 -1.1832 0.0090
11 15 6 -0.8709 -0.0051
11 16 1 -0.8455 0.0147
11 16 3 1.0947 0.0060
11 16 5 -0.3009 -0.0040
11 17 2 -2.4038 0.0173
11 17 4 -0.1854 0.0156
11 17 6 -1.8150 -0.0116
11 18 1 -0.4231 -0.0116
11 18 3 -0.1541 0.0148
11 18 5 1.1191 0.0093
11 19 2 2.4842 -0.0016
11 19 4 -0.9745 0.0217
11 19 6 -1.8003 -0.0189
11 20 1 1.9818 -0.0180
11 20 3 -0.4166 0.0198
11 20 5 0.0523 0.0413
11 21 2 3.7777 -0.0133
11 21 4 -2.0576 0.0324
11 22 1 3.8852 0.0006
11 22 3 -0.4217 0.0181
11 22 5 -1.0217 0.0562
11 23 2 1.5228 -0.0043
11 23 4 -2.0674 0.0359
11 24 1 4.5839 0.0251
11 24 3 -0.2713 0.0104
11 25 2 -0.5565 0.0004
11 26 1 3.7876 0.0340
11 26 3 -0.3874 0.0058
11 27 2 -0.9044 -0.0075
12 1 1 -12.4426 0.0142
12 1 3 9.7338 -0.0068
12 1 5 1.0135 -0.0069
12 1 7 -0.3847 0.0142
12 2 0 1.8456 0.0031
12 2 2 6.1689 0.0037
12 2 4 5.3991 -0.0110
12 2 6 1.0386 -0.0020
12 2 8 -0.7305 0.0218
12 3 1 -14.8660 0.0037
12 3 3 6.0403 -0.0113
12 3 5 -0.0257 -0.0048
12 3 7 -1.0385 -0.0067
12 4 2 -4.8315 0.0023
12 4 4 5.8494 -0.0101
12 4 6 -0.1969 -0.0073
12 4 8 -0.7376 0.0165
12 5 1 -6.6238 -0.0011
12 5 3 -2.7402 0.0001
12 5 5 -0.3407 -0.0022
12 5 7 -0.0558 -0.0168
12 6 0 2.3573 -0.0072
12 6 2 -9.2907 0.0005
12 6 4 2.3794 0.0065
12 6 6 -0.9452 -0.0020
12 6 8 -0.3576 -0.0121
12 7 1 -0.7960 0.0025
12 7 3 -9.8610 0.0122
12 7 5 -0.0208 0.0028
12 7 7 1.0747 -0.0112
12 8 0 -8.2633 0.0161
12 8 2 -6.6942 0.0037
12 8 4 -0.1870 0.0223
12 8 6 -0.1895 0.0153
12 9 1 -3.8667 0.0022
12 9 3 -9.6278 0.0060
12 9 5 0.4509 0.0088
12 9 7 1.1746 0.0034
12 10 0 -15.0188 0.0057
12 10 2 -2.6712 0.0007
12 10 4 0.8029 0.0132
12 10 6 0.8787 0.0217
12 11 1 -9.1774 -0.0064
12 11 3 -3.5794 -0.0134
12 11 5 -0.0740 0.0046
12 11 7 0.8384 0.0258
12 12 0 -12.3185 -0.0179
12 12 2 -1.5127 -0.0103
12 12 4 2.1269 -0.0070
12 12 6 0.9231 0.0052
12 13 1 -9.4937 -0.0146
12 13 3 1.0289 -0.0174
12 13 5 -1.7498 -0.0109
12 13 7 0.6835 0.0475
12 14 0 -4.8347 -0.0104
12 14 2 -1.8046 -0.0137
12 14 4 0.9775 -0.0082
12 14 6 0.5584 -0.0275
12 15 1 -5.6965 -0.0103
12 15 3 0.6530 0.0064
12 15 5 -2.7392 -0.0197
12 16 0 0.2846 0.0117
12 16 2 -0.1705 -0.0033
12 16 4 -0.9869 0.0019
12 16 6 0.7504 -0.0673
12 17 1 -1.8300 0.0080
12 17 3 -1.1753 0.0284
12 17 5 -1.6746 -0.0097
12 18 2 2.7042 0.0102
12 18 4 -1.7963 0.0007
12 18 6 1.0957 -0.0964
12 19 1 0.6280 0.0231
12 19 3 -0.9416 0.0210
12 19 5 0.2785 0.0048
12 20 0 1.9509 -0.0044
12 20 2 3.0057 0.0167
12 20 4 -2.1124 -0.0002
12 21 1 1.8058 0.0187
12 21 3 0.3148 0.0085
12 21 5 1.3524 0.0048
12 22 2 0.1199 0.0158
12 22 4 -2.6061 0.0177
12 23 1 1.5792 0.0025
12 23 3 0.7565 0.0269
12 24 0 -2.3935 0.0205
12 24 2 -2.1435 0.0114
12 24 4 -2.5082 0.0384
12 25 1 0.2230 -0.0072
12 25 3 0.6575 0.0553
12 26 0 -3.2130 0.0361
12 26 2 -1.3664 0.0077
12 27 1 -1.1210 -0.0073
13 1 2 -2.3814 0.0076
13 1 4 -0.1615 -0.0048
13 1 6 -0.6500 0.0087
13 1 8 2.1569 0.0195
13 2 1 4.0649 0.0036
13 2 3 -5.6339 -0.0026
13 2 5 3.9545 -0.0082
13 2 7 -1.9334 0.0039
13 3 2 3.3332 0.0008
13 3 4 -1.8053 0.0044
13 3 6 2.3186 -0.0063
13 3 8 0.1970 0.0583
13 4 1 1.0824 -0.0006
13 4 3 -5.7019 -0.0016
13 4 5 3.4472 -0.0062
13 4 7 -2.3314 -0.0023
13 5 2 8.0496 -0.0126
13 5 4 -2.2318 0.0111
13 5 6 2.9813 -0.0120
13 5 8 -1.4945 0.0522
13 6 1 -3.4490 -0.0070
13 6 3 -3.5496 -0.0033
13 6 5 -0.3478 -0.0024
13 6 7 -2.7556 -0.0082
13 7 2 9.2520 -0.0100
13 7 4 -0.2259 0.0061
13 7 6 1.1167 0.0002
13 8 1 -6.2120 -0.0080
13 8 3 -3.6884 0.0024
13 8 5 -2.7778 0.0082
13 8 7 -2.5076 -0.0051
13 9 2 6.6105 0.0074
13 9 4 2.7444 -0.0012
13 9 6 -0.8408 0.0124
13 10 1 -5.9952 -0.0063
13 10 3 -4.7657 0.0154
13 10 5 -0.5915 0.0152
13 10 7 -0.9046 0.0129
13 11 2 3.5691 0.0137
13 11 4 4.4205 -0.0035
13 11 6 -0.5528 0.0106
13 12 1 -3.4577 -0.0101
13 12 3 -3.8143 0.0159
13 12 5 3.3928 0.0039
13 12 7 0.8783 0.0332
13 13 2 2.6802 -0.0025
13 13 4 3.4570 -0.0087
13 13 6 1.4736 -0.0002
13 14 1 -0.3896 -0.0115
13 14 3 -2.1402 -0.0006
13 14 5 4.4331 -0.0110
13 14 7 1.4506 0.0408
13 15 2 1.9846 -0.0161
13 15 4 0.6598 -0.0178
13 15 6 2.9213 -0.0112
13 16 1 1.0765 0.0003
13 16 3 -1.8808 -0.0133
13 16 5 2.3995 -0.0121
13 17 2 -0.4012 -0.0014
13 17 4 -1.2804 -0.0189
13 17 6 2.7175 -0.0198
13 18 1 0.2932 0.0146
13 18 3 -1.5794 -0.0131
13 18 5 0.5698 -0.0166
13 19 2 -2.4859 0.0238
13 19 4 -0.8152 -0.0135
13 20 1 -1.5165 0.0139
13 20 3 0.4979 -0.0112
13 20 5 0.2296 -0.0377
13 21 2 -2.3794 0.0250
13 21 4 0.6655 -0.0152
13 22 1 -3.0058 0.0006
13 22 3 2.7625 -0.0115
13 23 2 -1.4691 0.0104
13 23 4 1.3353 -0.0210
13 24 1 -3.3029 -0.0079
13 24 3 3.1394 -0.0069
13 25 2 -1.3054 0.0145
13 26 1 -1.7092 -0.0016
14 1 1 11.2474 -0.0090
14 1 3 -0.6182 0.0034
14 1 5 -0.0147 0.0074
14 1 7 1.6625 -0.0075
14 2 2 -0.3795 -0.0041
14 2 4 -0.5982 0.0044
14 2 6 -0.8088 0.0045
14 2 8 0.7124 -0.0102
14 3 1 16.8063 -0.0034
14 3 3 -1.2177 -0.0027
14 3 5 0.5331 0.0030
14 3 7 1.8532 0.0089
14 4 0 -4.3650 0.0115
14 4 2 10.2066 -0.0130
14 4 4 -1.4892 0.0011
14 4 6 0.9486 -0.0052
14 5 1 11.6626 0.0028
14 5 3 2.2947 -0.0081
14 5 5 0.4512 -0.0064
14 5 7 0.6647 0.0066
14 6 0 -6.1150 0.0067
14 6 2 16.2366 -0.0039
14 6 4 -0.3353 -0.0084
14 6 6 2.3874 -0.0164
14 7 1 3.7068 0.0044
14 7 3 6.5577 -0.0047
14 7 5 -0.8708 -0.0111
14 7 7 -0.4252 -0.0126
14 8 0 1.3278 -0.0076
14 8 2 14.1047 0.0097
14 8 4 0.5331 -0.0140
14 8 6 1.6229 -0.0248
14 9 1 1.7230 0.0055
14 9 3 6.5790 0.0044
14 9 5 -2.5429 -0.0050
14 9 7 -0.5996 -0.0236
14 10 0 10.0869 -0.0069
14 10 2 7.0949 0.0135
14 10 4 -0.2764 0.0012
14 10 6 -0.5221 -0.0136
14 11 1 5.0377 0.0074
14 11 3 2.0452 0.0109
14 11 5 -1.9477 0.0099
14 11 7 -0.5996 -0.0235
14 12 0 10.5465 0.0062
14 12 2 1.5820 0.0095
14 12 4 -0.7206 0.0196
14 12 6 -1.9322 0.0189
14 13 1 7.4411 0.0040
14 13 3 -2.1569 0.0029
14 13 5 1.5229 0.0215
14 13 7 -0.8132 -0.0209
14 14 0 3.5730 0.0056
14 14 2 -0.2728 0.0021
14 14 4 0.3614 0.0101
14 14 6 -2.0489 0.0528
14 15 1 5.7605 -0.0064
14 15 3 -2.8600 -0.0205
14 15 5 4.4584 0.0144
14 16 0 -2.8593 -0.0074
14 16 2 -1.4059 -0.0081
14 16 4 1.1215 -0.0132
14 16 6 -1.6171 0.0729
14 17 1 1.7990 -0.0147
14 17 3 -1.7549 -0.0327
14 17 5 3.7413 -0.0120
14 18 2 -3.1877 -0.0176
14 18 4 0.6326 -0.0153
14 19 1 -1.1375 -0.0101
14 19 3 -1.0165 -0.0137
14 19 5 0.7125 -0.0364
14 20 2 -2.9492 -0.0200
14 20 4 0.4283 -0.0057
14 21 1 -1.6384 0.0048
14 21 3 -0.6469 0.0076
14 22 0 0.9909 -0.0092
14 22 2 0.1297 -0.0140
14 22 4 1.0870 -0.0153
14 23 1 -0.8493 0.0165
14 23 3 -0.5126 -0.0061
14 24 0 2.3934 -0.0325
14 24 2 2.3342 -0.0055
14 25 1 -0.4197 0.0183
14 26 0 1.1833 -0.0464
15 1 2 0.2106 0.0011
15 1 4 -2.8899 0.0075
15 1 6 1.9212 -0.0077
15 2 1 2.1737 0.0065
15 2 3 4.0207 0.0039
15 2 5 -3.1551 0.0073
15 2 7 2.1417 0.0129
15 3 2 -3.4090 0.0052
15 3 4 -2.3776 -0.0024
15 3 6 -0.6895 0.0041
15 4 1 0.7779 0.0060
15 4 3 4.2151 -0.0019
15 4 5 -3.7076 -0.0016
15 4 7 1.8627 0.0263
15 5 2 -8.2384 0.0029
15 5 4 -1.1769 -0.0124
15 5 6 -1.9787 0.0102
15 6 1 0.0865 0.0000
15 6 3 1.7214 -0.0044
15 6 5 -1.1761 -0.0067
15 6 7 1.9473 0.0113
15 7 2 -10.9440 -0.0029
15 7 4 -0.6167 -0.0068
15 7 6 -1.0876 -0.0064
15 8 1 -0.0272 0.0019
15 8 3 0.2305 -0.0050
15 8 5 1.1154 -0.0106
15 8 7 1.8753 -0.0190
15 9 2 -9.0822 -0.0066
15 9 4 -1.3088 0.0066
15 9 6 0.0928 -0.0231
15 10 1 0.3417 0.0067
15 10 3 0.2464 -0.0056
15 10 5 0.0332 -0.0123
15 10 7 0.6297 -0.0476
15 11 2 -4.2536 -0.0025
15 11 4 -2.3913 0.0110
15 11 6 -0.5611 -0.0145
15 12 1 -0.0711 0.0029
15 12 3 0.5439 0.0005
15 12 5 -2.9817 -0.0018
15 13 2 0.2825 0.0075
15 13 4 -1.7287 0.0068
15 13 6 -2.3546 0.0091
15 14 1 -1.4131 -0.0068
15 14 3 1.7897 0.0102
15 14 5 -4.2964 0.0078
15 15 2 3.0385 0.0078
15 15 4 1.0871 0.0004
15 15 6 -2.9386 0.0255
15 16 1 -1.9888 -0.0116
15 16 3 3.8030 0.0077
15 16 5 -3.2234 -0.0043
15 17 2 3.6263 -0.0099
15 17 4 3.2059 -0.0115
15 18 1 -1.1762 -0.0091
15 18 3 3.4862 -0.0053
15 18 5 -1.7229 -0.0219
15 19 2 2.1452 -0.0243
15 19 4 2.3538 -0.0251
15 20 1 -0.0894 -0.0066
15 20 3 -0.2181 -0.0090
15 20 5 -0.7365 -0.0180
15 21 2 0.4955 -0.0144
15 21 4 0.0672 -0.0249
15 22 1 0.6456 -0.0110
15 22 3 -3.5486 -0.0012
15 23 2 0.7511 -0.0015
15 24 1 0.8118 -0.0207
15 25 2 2.0027 -0.0173
16 1 1 -3.9784 -0.0022
16 1 3 -1.5181 -0.0096
16 1 5 0.3093 0.0032
16 1 7 -3.2432 0.0060
16 2 0 -3.9489 0.0008
16 2 2 -2.2583 -0.0027
16 2 4 -3.5919 0.0096
16 2 6 0.9204 0.0008
16 3 1 -8.6860 -0.0030
16 3 3 2.1397 0.0056
16 3 5 0.4205 0.0030
16 3 7 -2.6624 0.0025
16 4 0 3.1306 -0.0036
16 4 2 -8.7231 0.0098
16 4 4 -1.5551 0.0075
16 4 6 -0.5379 0.0107
16 5 1 -6.6155 -0.0043
16 5 3 2.0060 0.0111
16 5 5 0.4530 0.0068
16 5 7 -0.9806 0.0110
16 6 0 8.3457 -0.0053
16 6 2 -13.3733 0.0043
16 6 4 -0.1824 0.0013
16 6 6 -2.2525 0.0135
16 7 1 -0.8506 -0.0036
16 7 3 -1.3740 -0.0006
16 7 5 1.3543 0.0066
16 7 7 0.0890 0.0303
16 8 0 4.3977 0.0007
16 8 2 -11.9315 -0.0104
16 8 4 0.2375 -0.0031
16 8 6 -1.9650 0.0074
16 9 1 1.5571 -0.0003
16 9 3 -3.2341 -0.0075
16 9 5 2.7142 -0.0039
16 9 7 0.1350 0.0281
16 10 0 -3.2796 0.0065
16 10 2 -5.0170 -0.0101
16 10 4 0.4351 -0.0133
16 10 6 0.0818 -0.0099
16 11 1 -1.4128 0.0036
16 11 3 -1.2248 0.0005
16 11 5 1.7963 -0.0147
16 12 0 -4.8942 0.0033
16 12 2 1.2925 0.0048
16 12 4 0.3585 -0.0195
16 12 6 1.7719 -0.0337
16 13 1 -5.3420 0.0070
16 13 3 1.9012 0.0130
16 13 5 -2.1959 -0.0109
16 14 0 0.0412 -0.0009
16 14 2 2.7532 0.0148
16 14 4 0.3561 -0.0009
16 14 6 2.0175 -0.0458
16 15 1 -5.4556 0.0087
16 15 3 3.2790 0.0188
16 15 5 -5.3599 0.0094
16 16 2 1.8564 0.0127
16 16 4 1.3676 0.0249
16 17 1 -1.8933 0.0038
16 17 3 3.0614 0.0076
16 17 5 -4.1045 0.0344
16 18 0 5.5032 0.0060
16 18 2 2.0446 0.0062
16 18 4 2.5929 0.0218
16 19 1 1.3884 -0.0095
16 19 3 2.0775 -0.0227
16 19 5 -0.3737 0.0464
16 20 0 3.3835 0.0015
16 20 2 1.9702 0.0012
16 20 4 2.1315 -0.0001
16 21 1 1.9653 -0.0236
16 21 3 0.7296 -0.0456
16 22 0 0.9206 -0.0015
16 22 2 -0.0705 -0.0037
16 23 1 1.3445 -0.0292
16 23 3 0.0376 -0.0331
16 24 0 0.0107 0.0036
16 24 2 -1.5414 -0.0083
16 25 1 1.5799 -0.0280
17 1 2 -1.0857 -0.0045
17 1 4 2.3703 -0.0060
17 1 6 -1.9126 0.0028
17 2 1 0.1098 -0.0045
17 2 3 -0.7284 -0.0001
17 2 5 2.0015 -0.0038
17 2 7 -3.2521 -0.0307
17 3 2 0.7615 -0.0110
17 3 4 2.6668 -0.0024
17 3 6 -0.4599 0.0043
17 4 1 2.6519 -0.0073
17 4 3 -1.6582 0.0068
17 4 5 3.2299 0.0062
17 4 7 -2.1517 -0.0420
17 5 2 5.4022 0.0010
17 5 4 1.8980 0.0044
17 5 6 1.0687 -0.0026
17 6 1 4.3181 0.0011
17 6 3 0.0051 0.0064
17 6 5 2.3300 0.0033
17 6 7 -1.5206 -0.0073
17 7 2 8.7791 0.0099
17 7 4 0.2515 -0.0004
17 7 6 1.1789 0.0027
17 8 1 3.8509 0.0025
17 8 3 1.5588 -0.0021
17 8 5 0.8150 -0.0055
17 8 7 -1.3289 0.0386
17 9 2 7.4035 0.0056
17 9 4 -0.8797 -0.0138
17 9 6 0.5570 0.0093
17 10 1 1.4024 -0.0023
17 10 3 1.3629 -0.0108
17 10 5 0.7100 -0.0042
17 11 2 2.3473 -0.0000
17 11 4 -0.7026 -0.0148
17 11 6 0.8164 -0.0044
17 12 1 0.2749 0.0035
17 12 3 -0.1379 -0.0157
17 12 5 1.7713 0.0024
17 13 2 -2.8223 0.0008
17 13 4 -0.9818 0.0033
17 13 6 1.6620 -0.0246
17 14 1 1.5805 0.0158
17 14 3 -2.7289 -0.0123
17 14 5 2.3434 0.0131
17 15 2 -5.5137 0.0054
17 15 4 -3.0466 0.0279
17 16 1 2.3733 0.0158
17 16 3 -5.2310 0.0039
17 16 5 2.0387 0.0380
17 17 2 -4.7032 0.0087
17 17 4 -4.6641 0.0485
17 18 1 1.1856 0.0058
17 18 3 -4.7053 0.0203
17 18 5 1.5045 0.0638
17 19 2 -1.4802 0.0032
17 19 4 -3.4357 0.0591
17 20 1 -0.1093 0.0057
17 20 3 -0.9059 0.0171
17 21 2 0.8119 -0.0122
17 22 1 -0.5000 0.0210
17 22 3 1.9386 -0.0002
17 23 2 0.1835 -0.0165
17 24 1 -0.6098 0.0349
18 1 1 -4.1454 0.0078
18 1 3 -0.1144 0.0197
18 1 5 -0.4052 -0.0152
18 1 7 3.7035 -0.0124
18 2 0 3.4888 -0.0026
18 2 2 0.1120 0.0073
18 2 4 4.4731 -0.0148
18 2 6 -1.3507 -0.0004
18 3 1 -0.8878 0.0058
18 3 3 -4.6624 0.0006
18 3 5 -0.9850 -0.0035
18 3 7 2.3737 -0.0193
18 4 0 -1.0151 0.0035
18 4 2 2.3966 -0.0009
18 4 4 1.7583 -0.0090
18 4 6 -0.5862 0.0048
18 5 1 0.7760 0.0008
18 5 3 -5.5696 -0.0120
18 5 5 -1.0112 0.0051
18 5 7 0.2768 -0.0203
18 6 0 -6.4543 0.0078
18 6 2 5.7469 -0.0047
18 6 4 -1.0063 0.0061
18 6 6 1.0775 0.0177
18 7 1 -0.5249 -0.0033
18 7 3 -1.7408 -0.0014
18 7 5 -1.1521 0.0058
18 8 0 -5.3128 0.0034
18 8 2 6.3917 -0.0000
18 8 4 -1.7161 0.0109
18 8 6 1.5621 0.0313
18 9 1 -1.8194 -0.0073
18 9 3 2.0576 0.0040
18 9 5 -1.8060 0.0060
18 10 0 -0.4025 -0.0071
18 10 2 2.2040 -0.0035
18 10 4 -0.8879 0.0098
18 10 6 0.4763 0.0360
18 11 1 -0.2755 -0.0088
18 11 3 2.0955 -0.0088
18 11 5 -1.1064 0.0003
18 12 0 0.6164 -0.0100
18 12 2 -2.8744 -0.0165
18 12 4 -0.2722 0.0082
18 12 6 -0.7050 0.0325
18 13 1 2.7582 -0.0049
18 13 3 -0.0342 -0.0158
18 13 5 1.8977 -0.0190
18 14 0 -2.4531 -0.0042
18 14 2 -3.7156 -0.0193
18 14 4 -1.0969 -0.0038
18 15 1 3.4482 0.0018
18 15 3 -1.5377 0.0004
18 15 5 4.1514 -0.0405
18 16 0 -4.6534 -0.0010
18 16 2 -1.6108 -0.0036
18 16 4 -3.0168 -0.0182
18 17 1 0.7557 0.0077
18 17 3 -1.9010 0.0311
18 17 5 2.6884 -0.0469
18 18 0 -4.4649 0.0011
18 18 2 -0.9768 0.0153
18 18 4 -3.9662 -0.0106
18 19 1 -2.1444 0.0127
18 19 3 -1.3797 0.0605
18 20 0 -3.3435 0.0133
18 20 2 -1.6160 0.0226
18 21 1 -2.5553 0.0178
18 21 3 -0.3000 0.0716
18 22 0 -1.9386 0.0310
18 22 2 -0.8898 0.0199
18 23 1 -1.6540 0.0222
19 1 2 2.9643 0.0046
19 1 4 1.2308 -0.0033
19 1 6 0.8164 0.0013
19 2 1 -1.9811 -0.0037
19 2 3 -2.3894 -0.0032
19 2 5 -0.3641 -0.0031
19 2 7 3.4502 0.0337
19 3 2 2.1045 0.0157
19 3 4 0.1072 0.0021
19 3 6 0.7238 -0.0139
19 4 1 -3.1641 0.0062
19 4 3 -0.9464 -0.0074
19 4 5 -1.5572 -0.0081
19 5 2 -2.0781 0.0013
19 5 4 -0.7745 0.0043
19 5 6 -0.6006 -0.0042
19 6 1 -4.0798 0.0034
19 6 3 -1.5346 -0.0022
19 6 5 -1.8367 0.0062
19 7 2 -5.3014 -0.0107
19 7 4 0.1898 0.0072
19 7 6 -1.3248 0.0099
19 8 1 -3.0559 -0.0025
19 8 3 -2.4864 0.0099
19 8 5 -1.2299 0.0249
19 9 2 -4.2342 -0.0048
19 9 4 2.0939 0.0136
19 9 6 -0.8945 0.0168
19 10 1 0.2447 -0.0028
19 10 3 -1.8301 0.0167
19 10 5 -0.3982 0.0178
19 11 2 -0.2872 -0.0003
19 11 4 2.8305 0.0091
19 11 6 -0.4046 0.0266
19 12 1 1.8152 -0.0061
19 12 3 0.1332 0.0133
19 12 5 0.1763 -0.0106
19 13 2 3.3725 -0.0073
19 13 4 2.8965 -0.0164
19 14 1 0.0759 -0.0123
19 14 3 2.5577 0.0016
19 14 5 0.3388 -0.0368
19 15 2 5.0971 -0.0098
19 15 4 3.9276 -0.0493
19 16 1 -0.9841 -0.0094
19 16 3 4.4868 -0.0140
19 16 5 -0.0064 -0.0563
19 17 2 4.2988 0.0029
19 17 4 4.8159 -0.0694
19 18 1 0.8434 -0.0009
19 18 3 4.1944 -0.0211
19 19 2 1.5903 0.0220
19 19 4 3.6050 -0.0690
19 20 1 2.6712 -0.0037
19 20 3 1.6816 -0.0086
19 21 2 -0.5132 0.0334
19 22 1 2.5778 -0.0183
20 1 1 7.9114 -0.0096
20 1 3 0.5748 -0.0209
20 1 5 -0.1454 0.0202
20 2 0 -1.8561 -0.0026
20 2 2 2.0527 -0.0084
20 2 4 -3.0469 0.0085
20 2 6 1.1861 -0.0114
20 3 1 5.0243 -0.0064
20 3 3 4.6749 -0.0053
20 3 5 1.0950 -0.0039
20 4 0 -0.8605 -0.0072
20 4 2 1.7928 -0.0088
20 4 4 -0.9218 0.0058
20 4 6 1.3260 -0.0352
20 5 1 0.4460 0.0027
20 5 3 5.7431 0.0140
20 5 5 1.5227 -0.0218
20 6 0 3.5996 -0.0062
20 6 2 -0.9426 0.0023
20 6 4 1.6272 -0.0064
20 6 6 0.1913 -0.0570
20 7 1 -1.5443 0.0085
20 7 3 1.8821 0.0078
20 7 5 1.1362 -0.0148
20 8 0 4.1485 0.0029
20 8 2 -3.4405 0.0089
20 8 4 1.8596 -0.0055
20 8 6 -0.7695 -0.0637
20 9 1 -0.2963 0.0093
20 9 3 -2.4939 -0.0024
20 9 5 1.0274 0.0026
20 10 0 1.1539 0.0139
20 10 2 -1.8670 0.0103
20 10 4 0.1194 0.0020
20 10 6 -0.6930 -0.0440
20 11 1 0.9890 0.0044
20 11 3 -3.2244 0.0027
20 11 5 0.6446 0.0219
20 12 0 0.2572 0.0136
20 12 2 2.2292 0.0103
20 12 4 -0.9834 -0.0022
20 13 1 0.1933 -0.0056
20 13 3 -1.4810 0.0017
20 13 5 -0.9689 0.0439
20 14 0 1.5470 0.0023
20 14 2 3.5128 0.0019
20 14 4 -0.0100 -0.0110
20 15 1 -0.8719 -0.0126
20 15 3 -0.0387 -0.0237
20 15 5 -2.2708 0.0548
20 16 0 1.6096 -0.0066
20 16 2 1.4677 -0.0175
20 16 4 1.8145 -0.0127
20 17 1 -0.0284 -0.0090
20 17 3 0.5879 -0.0559
20 18 0 0.7770 -0.0142
20 18 2 0.3391 -0.0344
20 19 1 1.4855 -0.0000
20 19 3 0.7365 -0.0716
20 20 0 0.7501 -0.0321
20 20 2 1.0854 -0.0353
20 21 1 1.4158 0.0028
20 22 0 0.5827 -0.0517
21 1 2 -3.6449 -0.0025
21 1 4 -4.0194 0.0162
21 1 6 -0.2666 -0.0054
21 2 1 0.4279 0.0089
21 2 3 4.7193 0.0005
21 2 5 -1.0940 0.0178
21 3 2 -3.5302 -0.0148
21 3 4 -1.9413 0.0030
21 3 6 -1.2283 0.0206
21 4 1 0.2667 -0.0044
21 4 3 3.2755 0.0019
21 4 5 -0.4853 0.0141
21 5 2 -0.4363 -0.0023
21 5 4 0.7692 -0.0103
21 5 6 -0.3969 0.0121
21 6 1 1.1458 -0.0066
21 6 3 2.6651 -0.0027
21 6 5 0.3137 -0.0107
21 7 2 1.9373 0.0101
21 7 4 1.0560 -0.0084
21 7 6 0.5541 -0.0148
21 8 1 1.2430 0.0044
21 8 3 2.5412 -0.0086
21 8 5 0.5361 -0.0342
21 9 2 1.0775 0.0030
21 9 4 -1.1189 -0.0005
21 10 1 -1.2176 0.0106
21 10 3 1.4575 -0.0050
21 10 5 -0.2660 -0.0208
21 11 2 -1.2555 -0.0054
21 11 4 -2.9239 0.0099
21 12 1 -2.9037 0.0064
21 12 3 -0.1752 0.0067
21 12 5 -1.4501 0.0208
21 13 2 -2.8079 -0.0018
21 13 4 -3.2815 0.0308
21 14 1 -1.5234 -0.0024
21 14 3 -1.4009 0.0162
21 15 2 -3.5712 -0.0033
21 15 4 -3.4529 0.0566
21 16 1 -0.5906 -0.0116
21 16 3 -2.1607 0.0180
21 17 2 -3.6160 -0.0211
21 18 1 -2.5193 -0.0152
21 18 3 -2.1853 0.0108
21 19 2 -2.3951 -0.0391
21 20 1 -4.1804 -0.0082
22 1 1 -6.7761 0.0095
22 1 3 0.5340 0.0149
22 1 5 0.5716 -0.0196
22 2 0 0.5652 0.0067
22 2 2 -1.8643 0.0089
22 2 4 1.5820 -0.0004
22 2 6 -0.4191 0.0221
22 3 1 -4.3326 0.0048
22 3 3 -2.8612 0.0062
22 3 5 -1.1665 0.0119
22 4 0 0.8216 0.0031
22 4 2 -1.9512 0.0145
22 4 4 1.1267 -0.0050
22 4 6 -1.4096 0.0550
22 5 1 0.6187 -0.0050
22 5 3 -4.3584 -0.0169
22 5 5 -1.8003 0.0333
22 6 0 -3.0743 -0.0044
22 6 2 -0.0623 0.0005
22 6 4 -0.3352 -0.0019
22 7 1 3.4507 -0.0100
22 7 3 -1.6422 -0.0148
22 7 5 -0.9386 0.0178
22 8 0 -3.8098 -0.0134
22 8 2 2.6307 -0.0121
22 8 4 -0.3133 -0.0074
22 9 1 1.7864 -0.0066
22 9 3 1.8961 0.0055
22 9 5 -0.0956 -0.0099
22 10 0 -0.4885 -0.0154
22 10 2 2.3729 -0.0076
22 10 4 1.3176 -0.0127
22 11 1 -1.2959 0.0040
22 11 3 2.4840 0.0161
22 11 5 0.1472 -0.0276
22 12 0 1.6184 -0.0017
22 12 2 -0.9323 0.0083
22 12 4 2.2281 0.0043
22 13 1 -1.7290 0.0157
22 13 3 0.9805 0.0221
22 14 0 1.4909 0.0184
22 14 2 -2.5691 0.0253
22 14 4 1.2631 0.0331
22 15 1 0.0408 0.0178
22 15 3 -0.1460 0.0393
22 16 0 1.7920 0.0274
22 16 2 -0.7433 0.0382
22 17 1 0.9101 0.0057
22 17 3 -0.5762 0.0562
22 18 0 2.1526 0.0292
22 18 2 0.9560 0.0416
22 19 1 0.3617 -0.0103
22 20 0 1.1807 0.0384
23 1 2 3.2275 -0.0004
23 1 4 3.7741 -0.0226
23 2 1 1.5165 -0.0052
23 2 3 -5.0121 0.0054
23 2 5 1.2233 -0.0353
23 3 2 3.8078 0.0056
23 3 4 1.3372 -0.0042
23 4 1 2.3119 0.0047
23 4 3 -3.4482 0.0040
23 4 5 1.2180 -0.0202
23 5 2 1.7937 -0.0049
23 5 4 -1.8277 0.0164
23 6 1 1.0010 0.0057
23 6 3 -1.6109 0.0018
23 6 5 0.4318 0.0119
23 7 2 -0.0523 -0.0140
23 7 4 -2.5051 0.0055
23 8 1 -0.8203 -0.0092
23 8 3 -0.5922 -0.0022
23 8 5 -0.2383 0.0341
23 9 2 0.1805 -0.0019
23 9 4 -0.1984 -0.0211
23 10 1 0.0881 -0.0179
23 10 3 0.2501 -0.0139
23 11 2 1.0043 0.0172
23 11 4 2.2741 -0.0358
23 12 1 1.7887 -0.0052
23 12 3 0.7118 -0.0267
23 13 2 1.1239 0.0250
23 13 4 2.9200 -0.0408
23 14 1 1.2575 0.0188
23 14 3 0.3149 -0.0274
23 15 2 1.4822 0.0291
23 16 1 0.4488 0.0346
23 16 3 -0.1254 -0.0144
23 17 2 2.3344 0.0397
23 18 1 1.6630 0.0325
24 1 1 2.7530 -0.0056
24 1 3 -1.3232 -0.0119
24 1 5 -0.4225 0.0191
24 2 0 -0.3774 -0.0071
24 2 2 0.7185 -0.0050
24 2 4 -1.0273 -0.0041
24 3 1 1.9018 -0.0002
24 3 3 1.5490 -0.0052
24 3 5 0.9949 -0.0144
24 4 0 -0.1372 0.0057
24 4 2 0.8425 -0.0099
24 4 4 -2.1141 0.0082
24 5 1 -1.3552 0.0055
24 5 3 3.7142 0.0211
24 5 5 1.2413 -0.0364
24 6 0 3.2847 0.0132
24 6 2 0.1677 0.0025
24 6 4 -1.3680 0.0157
24 7 1 -3.8057 0.0063
24 7 3 2.6701 0.0221
24 7 5 0.1454 -0.0179
24 8 0 3.3832 0.0113
24 8 2 -1.6849 0.0148
24 8 4 -0.8236 0.0234
24 9 1 -2.6412 -0.0011
24 9 3 0.3099 -0.0088
24 10 0 -0.7989 -0.0024
24 10 2 -2.1602 0.0058
24 10 4 -1.3605 0.0229
24 11 1 0.1529 -0.0147
24 11 3 -0.4580 -0.0364
24 12 0 -3.6543 -0.0289
24 12 2 -0.1987 -0.0187
24 12 4 -1.5882 -0.0024
24 13 1 0.7549 -0.0249
24 13 3 0.1643 -0.0443
24 14 0 -3.1759 -0.0526
24 14 2 1.0248 -0.0382
24 15 1 -0.8446 -0.0217
24 16 0 -2.1735 -0.0534
24 16 2 -0.4526 -0.0423
24 17 1 -1.6590 -0.0066
25 1 2 -2.7361 -0.0005
25 1 4 -1.8968 0.0192
25 2 1 -1.4829 -0.0036
25 2 3 2.8486 -0.0082
25 3 2 -3.4518 0.0053
25 3 4 -0.2150 0.0001
25 4 1 -3.0818 -0.0082
25 4 3 1.2542 -0.0054
25 5 2 -1.7645 0.0164
25 5 4 1.7774 -0.0222
25 6 1 -2.2826 -0.0039
25 6 3 -0.8203 0.0036
25 7 2 0.2211 0.0206
25 7 4 2.0116 -0.0030
25 8 1 0.2327 0.0134
25 8 3 -1.5945 0.0126
25 9 2 0.7980 0.0022
25 9 4 0.1973 0.0375
25 10 1 0.7309 0.0226
25 10 3 -1.4221 0.0227
25 11 2 0.8108 -0.0275
25 12 1 -0.3842 0.0075
25 12 3 -0.6988 0.0293
25 13 2 0.9776 -0.0455
25 14 1 -0.1850 -0.0202
25 15 2 0.4957 -0.0487
25 16 1 0.7244 -0.0365
26 1 1 1.2269 0.0019
26 1 3 1.5222 0.0113
26 2 0 0.4202 0.0102
26 2 2 0.0298 -0.0031
26 2 4 1.1474 0.0084
26 3 1 0.5572 -0.0032
26 3 3 -0.7934 0.0006
26 4 0 0.3180 -0.0097
26 4 2 -0.1704 -0.0007
26 4 4 2.5546 -0.0109
26 5 1 2.1279 -0.0028
26 5 3 -3.1306 -0.0272
26 6 0 -2.2623 -0.0135
26 6 2 -0.1987 -0.0090
26 6 4 1.7122 -0.0274
26 7 1 4.1234 0.0025
26 7 3 -3.2524 -0.0294
26 8 0 -2.3085 0.0029
26 8 2 0.9811 -0.0183
26 9 1 3.7752 0.0126
26 9 3 -1.7199 0.0079
26 10 0 1.1708 0.0281
26 10 2 1.8844 -0.0102
26 11 1 1.7618 0.0262
26 11 3 -0.4206 0.0458
26 12 0 3.2659 0.0556
26 12 2 1.0449 0.0118
26 13 1 0.7761 0.0332
26 14 0 1.8816 0.0732
27 1 2 2.1679 0.0069
27 2 1 0.2686 0.0088
27 2 3 -0.1697 0.0081
27 3 2 2.4742 -0.0095
27 4 1 2.9385 0.0128
27 4 3 0.7319 0.0062
27 5 2 0.9099 -0.0227
27 6 1 3.5293 0.0030
27 6 3 1.7540 -0.0050
27 7 2 -0.8475 -0.0239
27 8 1 1.4965 -0.0165
27 8 3 1.5755 -0.0127
27 9 2 -1.5165 -0.0040
27 10 1 0.0176 -0.0264
27 11 2 -1.5989 0.0271
27 12 1 -0.0502 -0.0156
28 1 1 -2.4986 -0.0024
28 1 3 -1.6522 -0.0065
28 2 0 -0.0857 -0.0167
28 2 2 -0.2978 0.0047
28 3 1 -1.7684 0.0052
28 3 3 -0.2787 0.0072
28 4 0 -0.9134 0.0095
28 4 2 -0.2815 0.0046
28 5 1 -2.6664 0.0017
28 6 0 0.8871 0.0134
28 6 2 -0.3864 0.0107
28 7 1 -4.0079 -0.0076
28 8 0 1.6443 -0.0105
28 8 2 -1.2001 0.0183
28 9 1 -3.5811 -0.0182
28 10 0 -0.1044 -0.0366
29 1 2 -0.9669 -0.0115
29 2 1 0.5291 -0.0102
29 3 2 -0.9484 0.0080
29 4 1 -2.3949 -0.0171
29 6 1 -3.7878 -0.0032
0 0 0 0.0 0.0
;
_olex2_submission_special_instructions 'No special instructions were received'
loop_
_space_group_symop_operation_xyz
'x, y, z'
'-y+3/4, x+1/4, z+1/4'
'-x, -y+1/2, z'
'y+1/4, -x+1/4, z+1/4'
'x+1/2, y+1/2, z+1/2'
'-y+5/4, x+3/4, z+3/4'
'-x+1/2, -y+1, z+1/2'
'y+3/4, -x+3/4, z+3/4'
'-x, -y, -z'
'y-3/4, -x-1/4, -z-1/4'
'x, y-1/2, -z'
'-y-1/4, x-1/4, -z-1/4'
'-x+1/2, -y+1/2, -z+1/2'
'y-1/4, -x+1/4, -z+1/4'
'x+1/2, y, -z+1/2'
'-y+1/4, x+1/4, -z+1/4'
loop_
_atom_site_label
_atom_site_type_symbol
_atom_site_fract_x
_atom_site_fract_y
_atom_site_fract_z
_atom_site_U_iso_or_equiv
_atom_site_adp_type
_atom_site_occupancy
_atom_site_site_symmetry_order
_atom_site_calc_flag
_atom_site_refinement_flags_posn
_atom_site_refinement_flags_adp
_atom_site_refinement_flags_occupancy
_atom_site_disorder_assembly
_atom_site_disorder_group
S1 S 0.11019(6) 0.38935(5) 0.08407(19) 0.0459(6) Uani 1 1 d . . . A 1
O1 O 0.1250(2) 0.35333(19) -0.0531(7) 0.0837(17) Uani 1 1 d . . . A 1
O2 O 0.15459(19) 0.4150(2) 0.1686(8) 0.0897(18) Uani 1 1 d . . . A 1
O3 O 0.07128(16) 0.42791(15) 0.0279(5) 0.0495(10) Uani 1 1 d . . . A 1
C1 C 0.000000 0.250000 0.625000 0.033(2) Uani 1 4 d S T P A 1
C2 C 0.03052(19) 0.28767(18) 0.4996(6) 0.0318(11) Uani 1 1 d . . . A 1
C3 C 0.0668(2) 0.2658(2) 0.3839(6) 0.0388(12) Uani 1 1 d D . . A 1
H3 H 0.074199 0.229559 0.390514 0.047 Uiso 1 1 calc DR . . A 1
C4 C 0.0920(2) 0.2959(2) 0.2598(6) 0.0415(13) Uani 1 1 d D . . A 1
H4 H 0.1200(16) 0.2782(19) 0.171(6) 0.050 Uiso 1 1 d DR . . B 1
C5 C 0.07889(19) 0.35036(19) 0.2459(6) 0.0354(12) Uani 1 1 d . . . A 1
C6 C 0.0433(2) 0.3725(2) 0.3581(7) 0.0405(13) Uani 1 1 d D . . A 1
H6 H 0.0270(19) 0.4116(9) 0.344(7) 0.049 Uiso 1 1 d DR . . C 1
C7 C 0.0185(2) 0.3412(2) 0.4846(7) 0.0393(13) Uani 1 1 d D . . A 1
H7 H -0.0134(15) 0.3615(19) 0.550(7) 0.047 Uiso 1 1 d DR . . D 1
N1 N 0.1658(2) 0.3643(2) -0.3813(7) 0.0629(15) Uani 1 1 d . . . E 1
H1A H 0.151649 0.389424 -0.441463 0.076 Uiso 1 1 calc R . . E 1
H1B H 0.155817 0.358930 -0.275462 0.076 Uiso 1 1 calc R . . E 1
N2 N 0.21771(19) 0.3422(2) -0.6112(7) 0.0596(14) Uani 1 1 d . . . E 1
H2A H 0.203818 0.367276 -0.672680 0.072 Uiso 1 1 calc R . . E 1
H2B H 0.241917 0.322134 -0.655491 0.072 Uiso 1 1 calc R . . E 1
C8 C 0.2428(2) 0.2996(2) -0.1748(7) 0.0469(14) Uani 1 1 d D . . E 1
H8 H 0.238556 0.333028 -0.124750 0.056 Uiso 1 1 calc DR . . E 1
C9 C 0.22627(19) 0.2909(2) -0.3453(6) 0.0391(12) Uani 1 1 d . . . E 1
C10 C 0.2344(2) 0.2410(2) -0.4209(7) 0.0451(14) Uani 1 1 d D . . E 1
H10 H 0.224535 0.235092 -0.536116 0.054 Uiso 1 1 calc DR . . E 1
C11 C 0.2019(2) 0.3346(2) -0.4493(8) 0.0491(14) Uani 1 1 d . . . E 1
loop_
_atom_site_aniso_label
_atom_site_aniso_U_11
_atom_site_aniso_U_22
_atom_site_aniso_U_33
_atom_site_aniso_U_23
_atom_site_aniso_U_13
_atom_site_aniso_U_12
S1 0.0503(9) 0.0435(9) 0.0440(9) 0.0108(6) 0.0051(6) -0.0044(6)
O1 0.111(4) 0.064(3) 0.077(3) 0.011(3) 0.064(3) 0.011(3)
O2 0.067(3) 0.077(3) 0.124(4) 0.047(3) -0.038(3) -0.025(3)
O3 0.062(2) 0.048(2) 0.039(2) 0.0107(17) -0.0093(18) -0.0023(18)
C1 0.038(3) 0.038(3) 0.024(5) 0.000 0.000 0.000
C2 0.040(3) 0.034(3) 0.021(2) -0.0028(18) -0.002(2) -0.004(2)
C3 0.049(3) 0.036(3) 0.031(3) 0.000(2) 0.007(2) 0.005(2)
C4 0.057(3) 0.039(3) 0.028(3) 0.003(2) 0.010(2) 0.004(2)
C5 0.038(3) 0.040(3) 0.028(3) 0.002(2) -0.004(2) 0.003(2)
C6 0.052(3) 0.032(3) 0.037(3) 0.001(2) 0.006(2) 0.010(2)
C7 0.041(3) 0.042(3) 0.035(3) -0.002(2) 0.007(2) 0.007(2)
N1 0.068(3) 0.067(3) 0.054(3) 0.016(3) 0.013(3) 0.016(3)
N2 0.050(3) 0.083(4) 0.046(3) 0.020(3) 0.000(2) 0.010(3)
C8 0.051(3) 0.056(3) 0.035(3) -0.014(3) 0.000(2) -0.003(3)
C9 0.032(3) 0.055(3) 0.030(3) 0.007(2) -0.001(2) -0.002(2)
C10 0.048(3) 0.061(4) 0.027(3) -0.001(2) -0.007(2) 0.001(3)
C11 0.040(3) 0.068(4) 0.039(3) 0.000(3) 0.002(2) -0.002(3)
loop_
_atom_type_symbol
_atom_type_description
_atom_type_scat_dispersion_real
_atom_type_scat_dispersion_imag
_atom_type_scat_source
C C 0.0033 0.0016 'International Tables Vol C Tables 4.2.6.8 and 6.1.1.4'
H H 0.0000 0.0000 'International Tables Vol C Tables 4.2.6.8 and 6.1.1.4'
N N 0.0061 0.0033 'International Tables Vol C Tables 4.2.6.8 and 6.1.1.4'
O O 0.0106 0.0060 'International Tables Vol C Tables 4.2.6.8 and 6.1.1.4'
S S 0.1246 0.1234 'International Tables Vol C Tables 4.2.6.8 and 6.1.1.4'
loop_
_geom_angle_atom_site_label_1
_geom_angle_atom_site_label_2
_geom_angle_atom_site_label_3
_geom_angle
_geom_angle_site_symmetry_1
_geom_angle_site_symmetry_3
O1 S1 O2 114.2(4) . .
O1 S1 O3 112.3(3) . .
O1 S1 C5 106.3(2) . .
O2 S1 C5 106.0(3) . .
O3 S1 O2 111.0(3) . .
O3 S1 C5 106.3(2) . .
C2 C1 C2 103.4(3) 14_556 16_556
C2 C1 C2 103.4(3) 3 .
C2 C1 C2 112.59(17) 16_556 .
C2 C1 C2 112.59(17) 3 16_556
C2 C1 C2 112.59(17) 3 14_556
C2 C1 C2 112.59(17) 14_556 .
C3 C2 C1 118.7(4) . .
C7 C2 C1 122.5(4) . .
C7 C2 C3 118.4(4) . .
C2 C3 H3 119.0 . .
C4 C3 C2 121.9(5) . .
C4 C3 H3 119.0 . .
C3 C4 H4 121(3) . .
C3 C4 C5 118.7(5) . .
C5 C4 H4 120(3) . .
C4 C5 S1 119.2(4) . .
C6 C5 S1 120.8(4) . .
C6 C5 C4 120.1(4) . .
C5 C6 H6 124(3) . .
C5 C6 C7 120.3(5) . .
C7 C6 H6 115(3) . .
C2 C7 C6 120.6(5) . .
C2 C7 H7 126(3) . .
C6 C7 H7 113(3) . .
H1A N1 H1B 120.0 . .
C11 N1 H1A 120.0 . .
C11 N1 H1B 120.0 . .
H2A N2 H2B 120.0 . .
C11 N2 H2A 120.0 . .
C11 N2 H2B 120.0 . .
C9 C8 H8 119.7 . .
C10 C8 H8 119.7 13_554 .
C10 C8 C9 120.6(5) 13_554 .
C8 C9 C10 119.1(5) . .
C8 C9 C11 120.8(5) . .
C10 C9 C11 120.0(5) . .
C8 C10 C9 120.2(5) 13_554 .
C8 C10 H10 119.9 13_554 .
C9 C10 H10 119.9 . .
N1 C11 N2 120.8(6) . .
N1 C11 C9 120.0(5) . .
N2 C11 C9 119.2(5) . .
loop_
_geom_bond_atom_site_label_1
_geom_bond_atom_site_label_2
_geom_bond_distance
_geom_bond_site_symmetry_2
S1 O1 1.437(5) .
S1 O2 1.442(5) .
S1 O3 1.442(4) .
S1 C5 1.766(5) .
C1 C2 1.552(5) 3
C1 C2 1.552(5) .
C1 C2 1.552(5) 14_556
C1 C2 1.552(5) 16_556
C2 C3 1.385(7) .
C2 C7 1.382(7) .
C3 H3 0.9300 .
C3 C4 1.372(7) .
C4 H4 1.075(10) .
C4 C5 1.410(7) .
C5 C6 1.359(7) .
C6 H6 1.071(10) .
C6 C7 1.395(7) .
C7 H7 1.075(10) .
N1 H1A 0.8600 .
N1 H1B 0.8600 .
N1 C11 1.283(7) .
N2 H2A 0.8600 .
N2 H2B 0.8600 .
N2 C11 1.318(8) .
C8 H8 0.9300 .
C8 C9 1.389(7) .
C8 C10 1.380(8) 13_554
C9 C10 1.397(7) .
C9 C11 1.489(8) .
C10 H10 0.9300 .
loop_
_smtbx_masks_void_nr
_smtbx_masks_void_average_x
_smtbx_masks_void_average_y
_smtbx_masks_void_average_z
_smtbx_masks_void_volume
_smtbx_masks_void_count_electrons
_smtbx_masks_void_content
1 0.250 0.000 -0.573 193.7 37.5 3.75Water
2 0.250 0.500 -0.960 193.7 37.5 3.75Water
3 0.750 0.000 -0.471 193.7 37.5 3.75Water
4 0.750 0.500 -0.517 193.7 37.5 3.75Water
